%%MatrixMarket matrix coordinate pattern general
772 184 4752
1 1
2 1
3 1
4 1
5 1
6 1
7 1
8 1
1 2
2 2
3 2
4 2
5 2
6 2
7 2
8 2
1 3
2 3
3 3
4 3
5 3
6 3
7 3
8 3
1 4
2 4
3 4
4 4
5 4
6 4
7 4
8 4
1 5
2 5
3 5
4 5
5 5
6 5
7 5
8 5
1 6
2 6
3 6
4 6
5 6
6 6
7 6
8 6
1 7
9 7
10 7
11 7
12 7
13 7
14 7
15 7
16 7
17 7
18 7
19 7
20 7
21 7
22 7
23 7
24 7
25 7
26 7
27 7
28 7
29 7
30 7
31 7
32 7
33 7
34 7
35 7
36 7
37 7
38 7
39 7
40 7
41 7
42 7
43 7
44 7
2 8
9 8
10 8
11 8
12 8
13 8
14 8
15 8
16 8
17 8
18 8
19 8
20 8
21 8
22 8
23 8
24 8
25 8
26 8
27 8
28 8
29 8
30 8
31 8
32 8
33 8
34 8
35 8
36 8
37 8
38 8
39 8
40 8
41 8
42 8
43 8
44 8
3 9
9 9
10 9
11 9
12 9
13 9
14 9
15 9
16 9
17 9
18 9
19 9
20 9
21 9
22 9
23 9
24 9
25 9
26 9
27 9
28 9
29 9
30 9
31 9
32 9
33 9
34 9
35 9
36 9
37 9
38 9
39 9
40 9
41 9
42 9
43 9
44 9
4 10
9 10
10 10
11 10
12 10
13 10
14 10
15 10
16 10
17 10
18 10
19 10
20 10
21 10
22 10
23 10
24 10
25 10
26 10
27 10
28 10
29 10
30 10
31 10
32 10
33 10
34 10
35 10
36 10
37 10
38 10
39 10
40 10
41 10
42 10
43 10
44 10
9 11
10 11
11 11
12 11
13 11
14 11
15 11
16 11
17 11
18 11
19 11
20 11
21 11
22 11
23 11
24 11
25 11
26 11
27 11
28 11
29 11
30 11
31 11
32 11
33 11
34 11
35 11
36 11
37 11
38 11
39 11
40 11
41 11
42 11
43 11
44 11
9 12
10 12
11 12
12 12
13 12
14 12
15 12
16 12
17 12
18 12
19 12
20 12
21 12
22 12
23 12
24 12
25 12
26 12
27 12
28 12
29 12
30 12
31 12
32 12
33 12
34 12
35 12
36 12
37 12
38 12
39 12
40 12
41 12
42 12
43 12
44 12
9 13
45 13
46 13
47 13
48 13
49 13
50 13
51 13
52 13
53 13
54 13
55 13
56 13
57 13
58 13
59 13
60 13
61 13
62 13
63 13
64 13
65 13
66 13
67 13
68 13
69 13
70 13
71 13
72 13
73 13
74 13
75 13
76 13
77 13
78 13
79 13
80 13
10 14
45 14
46 14
47 14
48 14
49 14
50 14
51 14
52 14
53 14
54 14
55 14
56 14
57 14
58 14
59 14
60 14
61 14
62 14
63 14
64 14
65 14
66 14
67 14
68 14
69 14
70 14
71 14
72 14
73 14
74 14
75 14
76 14
77 14
78 14
79 14
80 14
11 15
45 15
46 15
47 15
48 15
49 15
50 15
51 15
52 15
53 15
54 15
55 15
56 15
57 15
58 15
59 15
60 15
61 15
62 15
63 15
64 15
65 15
66 15
67 15
68 15
69 15
70 15
71 15
72 15
73 15
74 15
75 15
76 15
77 15
78 15
79 15
80 15
12 16
45 16
46 16
47 16
48 16
49 16
50 16
51 16
52 16
53 16
54 16
55 16
56 16
57 16
58 16
59 16
60 16
61 16
62 16
63 16
64 16
65 16
66 16
67 16
68 16
69 16
70 16
71 16
72 16
73 16
74 16
75 16
76 16
77 16
78 16
79 16
80 16
45 17
46 17
47 17
48 17
49 17
50 17
51 17
52 17
53 17
54 17
55 17
56 17
57 17
58 17
59 17
60 17
61 17
62 17
63 17
64 17
65 17
66 17
67 17
68 17
69 17
70 17
71 17
72 17
73 17
74 17
75 17
76 17
77 17
78 17
79 17
80 17
45 18
46 18
47 18
48 18
49 18
50 18
51 18
52 18
53 18
54 18
55 18
56 18
57 18
58 18
59 18
60 18
61 18
62 18
63 18
64 18
65 18
66 18
67 18
68 18
69 18
70 18
71 18
72 18
73 18
74 18
75 18
76 18
77 18
78 18
79 18
80 18
45 19
81 19
82 19
83 19
84 19
85 19
86 19
87 19
88 19
89 19
90 19
91 19
92 19
93 19
94 19
95 19
96 19
97 19
98 19
99 19
100 19
101 19
102 19
103 19
104 19
105 19
106 19
107 19
108 19
109 19
110 19
111 19
112 19
113 19
114 19
115 19
116 19
46 20
81 20
82 20
83 20
84 20
85 20
86 20
87 20
88 20
89 20
90 20
91 20
92 20
93 20
94 20
95 20
96 20
97 20
98 20
99 20
100 20
101 20
102 20
103 20
104 20
105 20
106 20
107 20
108 20
109 20
110 20
111 20
112 20
113 20
114 20
115 20
116 20
47 21
81 21
82 21
83 21
84 21
85 21
86 21
87 21
88 21
89 21
90 21
91 21
92 21
93 21
94 21
95 21
96 21
97 21
98 21
99 21
100 21
101 21
102 21
103 21
104 21
105 21
106 21
107 21
108 21
109 21
110 21
111 21
112 21
113 21
114 21
115 21
116 21
48 22
81 22
82 22
83 22
84 22
85 22
86 22
87 22
88 22
89 22
90 22
91 22
92 22
93 22
94 22
95 22
96 22
97 22
98 22
99 22
100 22
101 22
102 22
103 22
104 22
105 22
106 22
107 22
108 22
109 22
110 22
111 22
112 22
113 22
114 22
115 22
116 22
81 23
82 23
83 23
84 23
85 23
86 23
87 23
88 23
89 23
90 23
91 23
92 23
93 23
94 23
95 23
96 23
97 23
98 23
99 23
100 23
101 23
102 23
103 23
104 23
105 23
106 23
107 23
108 23
109 23
110 23
111 23
112 23
113 23
114 23
115 23
116 23
81 24
82 24
83 24
84 24
85 24
86 24
87 24
88 24
89 24
90 24
91 24
92 24
93 24
94 24
95 24
96 24
97 24
98 24
99 24
100 24
101 24
102 24
103 24
104 24
105 24
106 24
107 24
108 24
109 24
110 24
111 24
112 24
113 24
114 24
115 24
116 24
81 25
117 25
118 25
119 25
120 25
121 25
122 25
123 25
124 25
125 25
126 25
127 25
128 25
129 25
130 25
131 25
132 25
133 25
134 25
135 25
136 25
137 25
138 25
139 25
140 25
141 25
142 25
143 25
144 25
145 25
146 25
147 25
148 25
149 25
150 25
151 25
152 25
82 26
117 26
118 26
119 26
120 26
121 26
122 26
123 26
124 26
125 26
126 26
127 26
128 26
129 26
130 26
131 26
132 26
133 26
134 26
135 26
136 26
137 26
138 26
139 26
140 26
141 26
142 26
143 26
144 26
145 26
146 26
147 26
148 26
149 26
150 26
151 26
152 26
83 27
117 27
118 27
119 27
120 27
121 27
122 27
123 27
124 27
125 27
126 27
127 27
128 27
129 27
130 27
131 27
132 27
133 27
134 27
135 27
136 27
137 27
138 27
139 27
140 27
141 27
142 27
143 27
144 27
145 27
146 27
147 27
148 27
149 27
150 27
151 27
152 27
84 28
117 28
118 28
119 28
120 28
121 28
122 28
123 28
124 28
125 28
126 28
127 28
128 28
129 28
130 28
131 28
132 28
133 28
134 28
135 28
136 28
137 28
138 28
139 28
140 28
141 28
142 28
143 28
144 28
145 28
146 28
147 28
148 28
149 28
150 28
151 28
152 28
117 29
118 29
119 29
120 29
121 29
122 29
123 29
124 29
125 29
126 29
127 29
128 29
129 29
130 29
131 29
132 29
133 29
134 29
135 29
136 29
137 29
138 29
139 29
140 29
141 29
142 29
143 29
144 29
145 29
146 29
147 29
148 29
149 29
150 29
151 29
152 29
117 30
118 30
119 30
120 30
121 30
122 30
123 30
124 30
125 30
126 30
127 30
128 30
129 30
130 30
131 30
132 30
133 30
134 30
135 30
136 30
137 30
138 30
139 30
140 30
141 30
142 30
143 30
144 30
145 30
146 30
147 30
148 30
149 30
150 30
151 30
152 30
117 31
153 31
154 31
155 31
156 31
157 31
158 31
159 31
160 31
161 31
162 31
163 31
164 31
165 31
166 31
167 31
168 31
169 31
170 31
171 31
172 31
173 31
174 31
175 31
176 31
177 31
178 31
179 31
180 31
181 31
182 31
183 31
184 31
185 31
186 31
187 31
188 31
118 32
153 32
154 32
155 32
156 32
157 32
158 32
159 32
160 32
161 32
162 32
163 32
164 32
165 32
166 32
167 32
168 32
169 32
170 32
171 32
172 32
173 32
174 32
175 32
176 32
177 32
178 32
179 32
180 32
181 32
182 32
183 32
184 32
185 32
186 32
187 32
188 32
119 33
153 33
154 33
155 33
156 33
157 33
158 33
159 33
160 33
161 33
162 33
163 33
164 33
165 33
166 33
167 33
168 33
169 33
170 33
171 33
172 33
173 33
174 33
175 33
176 33
177 33
178 33
179 33
180 33
181 33
182 33
183 33
184 33
185 33
186 33
187 33
188 33
120 34
153 34
154 34
155 34
156 34
157 34
158 34
159 34
160 34
161 34
162 34
163 34
164 34
165 34
166 34
167 34
168 34
169 34
170 34
171 34
172 34
173 34
174 34
175 34
176 34
177 34
178 34
179 34
180 34
181 34
182 34
183 34
184 34
185 34
186 34
187 34
188 34
153 35
154 35
155 35
156 35
157 35
158 35
159 35
160 35
161 35
162 35
163 35
164 35
165 35
166 35
167 35
168 35
169 35
170 35
171 35
172 35
173 35
174 35
175 35
176 35
177 35
178 35
179 35
180 35
181 35
182 35
183 35
184 35
185 35
186 35
187 35
188 35
153 36
154 36
155 36
156 36
157 36
158 36
159 36
160 36
161 36
162 36
163 36
164 36
165 36
166 36
167 36
168 36
169 36
170 36
171 36
172 36
173 36
174 36
175 36
176 36
177 36
178 36
179 36
180 36
181 36
182 36
183 36
184 36
185 36
186 36
187 36
188 36
153 37
189 37
190 37
191 37
192 37
193 37
194 37
195 37
196 37
197 37
198 37
199 37
200 37
201 37
202 37
203 37
204 37
205 37
206 37
207 37
208 37
209 37
210 37
211 37
212 37
213 37
214 37
215 37
216 37
217 37
218 37
219 37
220 37
221 37
222 37
223 37
224 37
154 38
189 38
190 38
191 38
192 38
193 38
194 38
195 38
196 38
197 38
198 38
199 38
200 38
201 38
202 38
203 38
204 38
205 38
206 38
207 38
208 38
209 38
210 38
211 38
212 38
213 38
214 38
215 38
216 38
217 38
218 38
219 38
220 38
221 38
222 38
223 38
224 38
155 39
189 39
190 39
191 39
192 39
193 39
194 39
195 39
196 39
197 39
198 39
199 39
200 39
201 39
202 39
203 39
204 39
205 39
206 39
207 39
208 39
209 39
210 39
211 39
212 39
213 39
214 39
215 39
216 39
217 39
218 39
219 39
220 39
221 39
222 39
223 39
224 39
156 40
189 40
190 40
191 40
192 40
193 40
194 40
195 40
196 40
197 40
198 40
199 40
200 40
201 40
202 40
203 40
204 40
205 40
206 40
207 40
208 40
209 40
210 40
211 40
212 40
213 40
214 40
215 40
216 40
217 40
218 40
219 40
220 40
221 40
222 40
223 40
224 40
189 41
190 41
191 41
192 41
193 41
194 41
195 41
196 41
197 41
198 41
199 41
200 41
201 41
202 41
203 41
204 41
205 41
206 41
207 41
208 41
209 41
210 41
211 41
212 41
213 41
214 41
215 41
216 41
217 41
218 41
219 41
220 41
221 41
222 41
223 41
224 41
189 42
190 42
191 42
192 42
193 42
194 42
195 42
196 42
197 42
198 42
199 42
200 42
201 42
202 42
203 42
204 42
205 42
206 42
207 42
208 42
209 42
210 42
211 42
212 42
213 42
214 42
215 42
216 42
217 42
218 42
219 42
220 42
221 42
222 42
223 42
224 42
189 43
225 43
226 43
227 43
228 43
229 43
230 43
231 43
232 43
233 43
234 43
235 43
236 43
237 43
238 43
239 43
240 43
241 43
242 43
243 43
244 43
245 43
246 43
247 43
248 43
249 43
250 43
251 43
252 43
253 43
254 43
255 43
256 43
257 43
258 43
259 43
260 43
190 44
225 44
226 44
227 44
228 44
229 44
230 44
231 44
232 44
233 44
234 44
235 44
236 44
237 44
238 44
239 44
240 44
241 44
242 44
243 44
244 44
245 44
246 44
247 44
248 44
249 44
250 44
251 44
252 44
253 44
254 44
255 44
256 44
257 44
258 44
259 44
260 44
191 45
225 45
226 45
227 45
228 45
229 45
230 45
231 45
232 45
233 45
234 45
235 45
236 45
237 45
238 45
239 45
240 45
241 45
242 45
243 45
244 45
245 45
246 45
247 45
248 45
249 45
250 45
251 45
252 45
253 45
254 45
255 45
256 45
257 45
258 45
259 45
260 45
192 46
225 46
226 46
227 46
228 46
229 46
230 46
231 46
232 46
233 46
234 46
235 46
236 46
237 46
238 46
239 46
240 46
241 46
242 46
243 46
244 46
245 46
246 46
247 46
248 46
249 46
250 46
251 46
252 46
253 46
254 46
255 46
256 46
257 46
258 46
259 46
260 46
225 47
226 47
227 47
228 47
229 47
230 47
231 47
232 47
233 47
234 47
235 47
236 47
237 47
238 47
239 47
240 47
241 47
242 47
243 47
244 47
245 47
246 47
247 47
248 47
249 47
250 47
251 47
252 47
253 47
254 47
255 47
256 47
257 47
258 47
259 47
260 47
225 48
226 48
227 48
228 48
229 48
230 48
231 48
232 48
233 48
234 48
235 48
236 48
237 48
238 48
239 48
240 48
241 48
242 48
243 48
244 48
245 48
246 48
247 48
248 48
249 48
250 48
251 48
252 48
253 48
254 48
255 48
256 48
257 48
258 48
259 48
260 48
225 49
261 49
262 49
263 49
264 49
265 49
266 49
267 49
268 49
269 49
270 49
271 49
272 49
273 49
274 49
275 49
276 49
277 49
278 49
279 49
280 49
281 49
282 49
283 49
284 49
285 49
286 49
287 49
288 49
289 49
290 49
291 49
292 49
293 49
294 49
295 49
296 49
226 50
261 50
262 50
263 50
264 50
265 50
266 50
267 50
268 50
269 50
270 50
271 50
272 50
273 50
274 50
275 50
276 50
277 50
278 50
279 50
280 50
281 50
282 50
283 50
284 50
285 50
286 50
287 50
288 50
289 50
290 50
291 50
292 50
293 50
294 50
295 50
296 50
227 51
261 51
262 51
263 51
264 51
265 51
266 51
267 51
268 51
269 51
270 51
271 51
272 51
273 51
274 51
275 51
276 51
277 51
278 51
279 51
280 51
281 51
282 51
283 51
284 51
285 51
286 51
287 51
288 51
289 51
290 51
291 51
292 51
293 51
294 51
295 51
296 51
228 52
261 52
262 52
263 52
264 52
265 52
266 52
267 52
268 52
269 52
270 52
271 52
272 52
273 52
274 52
275 52
276 52
277 52
278 52
279 52
280 52
281 52
282 52
283 52
284 52
285 52
286 52
287 52
288 52
289 52
290 52
291 52
292 52
293 52
294 52
295 52
296 52
261 53
262 53
263 53
264 53
265 53
266 53
267 53
268 53
269 53
270 53
271 53
272 53
273 53
274 53
275 53
276 53
277 53
278 53
279 53
280 53
281 53
282 53
283 53
284 53
285 53
286 53
287 53
288 53
289 53
290 53
291 53
292 53
293 53
294 53
295 53
296 53
261 54
262 54
263 54
264 54
265 54
266 54
267 54
268 54
269 54
270 54
271 54
272 54
273 54
274 54
275 54
276 54
277 54
278 54
279 54
280 54
281 54
282 54
283 54
284 54
285 54
286 54
287 54
288 54
289 54
290 54
291 54
292 54
293 54
294 54
295 54
296 54
261 55
297 55
298 55
299 55
300 55
301 55
302 55
303 55
304 55
305 55
306 55
307 55
308 55
309 55
310 55
311 55
312 55
313 55
314 55
315 55
316 55
317 55
318 55
319 55
320 55
321 55
322 55
323 55
324 55
325 55
326 55
327 55
328 55
329 55
330 55
331 55
332 55
262 56
297 56
298 56
299 56
300 56
301 56
302 56
303 56
304 56
305 56
306 56
307 56
308 56
309 56
310 56
311 56
312 56
313 56
314 56
315 56
316 56
317 56
318 56
319 56
320 56
321 56
322 56
323 56
324 56
325 56
326 56
327 56
328 56
329 56
330 56
331 56
332 56
263 57
297 57
298 57
299 57
300 57
301 57
302 57
303 57
304 57
305 57
306 57
307 57
308 57
309 57
310 57
311 57
312 57
313 57
314 57
315 57
316 57
317 57
318 57
319 57
320 57
321 57
322 57
323 57
324 57
325 57
326 57
327 57
328 57
329 57
330 57
331 57
332 57
264 58
297 58
298 58
299 58
300 58
301 58
302 58
303 58
304 58
305 58
306 58
307 58
308 58
309 58
310 58
311 58
312 58
313 58
314 58
315 58
316 58
317 58
318 58
319 58
320 58
321 58
322 58
323 58
324 58
325 58
326 58
327 58
328 58
329 58
330 58
331 58
332 58
297 59
298 59
299 59
300 59
301 59
302 59
303 59
304 59
305 59
306 59
307 59
308 59
309 59
310 59
311 59
312 59
313 59
314 59
315 59
316 59
317 59
318 59
319 59
320 59
321 59
322 59
323 59
324 59
325 59
326 59
327 59
328 59
329 59
330 59
331 59
332 59
297 60
298 60
299 60
300 60
301 60
302 60
303 60
304 60
305 60
306 60
307 60
308 60
309 60
310 60
311 60
312 60
313 60
314 60
315 60
316 60
317 60
318 60
319 60
320 60
321 60
322 60
323 60
324 60
325 60
326 60
327 60
328 60
329 60
330 60
331 60
332 60
297 61
333 61
334 61
335 61
336 61
337 61
338 61
339 61
340 61
341 61
342 61
343 61
344 61
345 61
346 61
347 61
348 61
349 61
350 61
351 61
352 61
353 61
354 61
355 61
356 61
357 61
358 61
359 61
360 61
361 61
362 61
363 61
364 61
365 61
366 61
367 61
368 61
298 62
333 62
334 62
335 62
336 62
337 62
338 62
339 62
340 62
341 62
342 62
343 62
344 62
345 62
346 62
347 62
348 62
349 62
350 62
351 62
352 62
353 62
354 62
355 62
356 62
357 62
358 62
359 62
360 62
361 62
362 62
363 62
364 62
365 62
366 62
367 62
368 62
299 63
333 63
334 63
335 63
336 63
337 63
338 63
339 63
340 63
341 63
342 63
343 63
344 63
345 63
346 63
347 63
348 63
349 63
350 63
351 63
352 63
353 63
354 63
355 63
356 63
357 63
358 63
359 63
360 63
361 63
362 63
363 63
364 63
365 63
366 63
367 63
368 63
300 64
333 64
334 64
335 64
336 64
337 64
338 64
339 64
340 64
341 64
342 64
343 64
344 64
345 64
346 64
347 64
348 64
349 64
350 64
351 64
352 64
353 64
354 64
355 64
356 64
357 64
358 64
359 64
360 64
361 64
362 64
363 64
364 64
365 64
366 64
367 64
368 64
333 65
334 65
335 65
336 65
337 65
338 65
339 65
340 65
341 65
342 65
343 65
344 65
345 65
346 65
347 65
348 65
349 65
350 65
351 65
352 65
353 65
354 65
355 65
356 65
357 65
358 65
359 65
360 65
361 65
362 65
363 65
364 65
365 65
366 65
367 65
368 65
333 66
334 66
335 66
336 66
337 66
338 66
339 66
340 66
341 66
342 66
343 66
344 66
345 66
346 66
347 66
348 66
349 66
350 66
351 66
352 66
353 66
354 66
355 66
356 66
357 66
358 66
359 66
360 66
361 66
362 66
363 66
364 66
365 66
366 66
367 66
368 66
333 67
369 67
370 67
371 67
372 67
373 67
374 67
375 67
376 67
377 67
378 67
379 67
380 67
381 67
382 67
383 67
384 67
385 67
386 67
387 67
388 67
389 67
390 67
391 67
392 67
393 67
394 67
395 67
396 67
397 67
398 67
399 67
400 67
401 67
402 67
403 67
404 67
334 68
369 68
370 68
371 68
372 68
373 68
374 68
375 68
376 68
377 68
378 68
379 68
380 68
381 68
382 68
383 68
384 68
385 68
386 68
387 68
388 68
389 68
390 68
391 68
392 68
393 68
394 68
395 68
396 68
397 68
398 68
399 68
400 68
401 68
402 68
403 68
404 68
335 69
369 69
370 69
371 69
372 69
373 69
374 69
375 69
376 69
377 69
378 69
379 69
380 69
381 69
382 69
383 69
384 69
385 69
386 69
387 69
388 69
389 69
390 69
391 69
392 69
393 69
394 69
395 69
396 69
397 69
398 69
399 69
400 69
401 69
402 69
403 69
404 69
336 70
369 70
370 70
371 70
372 70
373 70
374 70
375 70
376 70
377 70
378 70
379 70
380 70
381 70
382 70
383 70
384 70
385 70
386 70
387 70
388 70
389 70
390 70
391 70
392 70
393 70
394 70
395 70
396 70
397 70
398 70
399 70
400 70
401 70
402 70
403 70
404 70
369 71
370 71
371 71
372 71
373 71
374 71
375 71
376 71
377 71
378 71
379 71
380 71
381 71
382 71
383 71
384 71
385 71
386 71
387 71
388 71
389 71
390 71
391 71
392 71
393 71
394 71
395 71
396 71
397 71
398 71
399 71
400 71
401 71
402 71
403 71
404 71
369 72
370 72
371 72
372 72
373 72
374 72
375 72
376 72
377 72
378 72
379 72
380 72
381 72
382 72
383 72
384 72
385 72
386 72
387 72
388 72
389 72
390 72
391 72
392 72
393 72
394 72
395 72
396 72
397 72
398 72
399 72
400 72
401 72
402 72
403 72
404 72
369 73
405 73
406 73
407 73
408 73
409 73
410 73
411 73
412 73
413 73
414 73
415 73
416 73
417 73
418 73
419 73
420 73
421 73
422 73
423 73
424 73
425 73
426 73
427 73
428 73
429 73
430 73
431 73
432 73
433 73
434 73
435 73
436 73
437 73
438 73
439 73
440 73
370 74
405 74
406 74
407 74
408 74
409 74
410 74
411 74
412 74
413 74
414 74
415 74
416 74
417 74
418 74
419 74
420 74
421 74
422 74
423 74
424 74
425 74
426 74
427 74
428 74
429 74
430 74
431 74
432 74
433 74
434 74
435 74
436 74
437 74
438 74
439 74
440 74
371 75
405 75
406 75
407 75
408 75
409 75
410 75
411 75
412 75
413 75
414 75
415 75
416 75
417 75
418 75
419 75
420 75
421 75
422 75
423 75
424 75
425 75
426 75
427 75
428 75
429 75
430 75
431 75
432 75
433 75
434 75
435 75
436 75
437 75
438 75
439 75
440 75
372 76
405 76
406 76
407 76
408 76
409 76
410 76
411 76
412 76
413 76
414 76
415 76
416 76
417 76
418 76
419 76
420 76
421 76
422 76
423 76
424 76
425 76
426 76
427 76
428 76
429 76
430 76
431 76
432 76
433 76
434 76
435 76
436 76
437 76
438 76
439 76
440 76
405 77
406 77
407 77
408 77
409 77
410 77
411 77
412 77
413 77
414 77
415 77
416 77
417 77
418 77
419 77
420 77
421 77
422 77
423 77
424 77
425 77
426 77
427 77
428 77
429 77
430 77
431 77
432 77
433 77
434 77
435 77
436 77
437 77
438 77
439 77
440 77
405 78
406 78
407 78
408 78
409 78
410 78
411 78
412 78
413 78
414 78
415 78
416 78
417 78
418 78
419 78
420 78
421 78
422 78
423 78
424 78
425 78
426 78
427 78
428 78
429 78
430 78
431 78
432 78
433 78
434 78
435 78
436 78
437 78
438 78
439 78
440 78
405 79
441 79
442 79
443 79
444 79
445 79
446 79
447 79
448 79
449 79
450 79
451 79
452 79
453 79
454 79
455 79
456 79
457 79
458 79
459 79
460 79
461 79
462 79
463 79
464 79
465 79
466 79
467 79
468 79
469 79
470 79
471 79
472 79
473 79
474 79
475 79
476 79
406 80
441 80
442 80
443 80
444 80
445 80
446 80
447 80
448 80
449 80
450 80
451 80
452 80
453 80
454 80
455 80
456 80
457 80
458 80
459 80
460 80
461 80
462 80
463 80
464 80
465 80
466 80
467 80
468 80
469 80
470 80
471 80
472 80
473 80
474 80
475 80
476 80
407 81
441 81
442 81
443 81
444 81
445 81
446 81
447 81
448 81
449 81
450 81
451 81
452 81
453 81
454 81
455 81
456 81
457 81
458 81
459 81
460 81
461 81
462 81
463 81
464 81
465 81
466 81
467 81
468 81
469 81
470 81
471 81
472 81
473 81
474 81
475 81
476 81
408 82
441 82
442 82
443 82
444 82
445 82
446 82
447 82
448 82
449 82
450 82
451 82
452 82
453 82
454 82
455 82
456 82
457 82
458 82
459 82
460 82
461 82
462 82
463 82
464 82
465 82
466 82
467 82
468 82
469 82
470 82
471 82
472 82
473 82
474 82
475 82
476 82
441 83
442 83
443 83
444 83
445 83
446 83
447 83
448 83
449 83
450 83
451 83
452 83
453 83
454 83
455 83
456 83
457 83
458 83
459 83
460 83
461 83
462 83
463 83
464 83
465 83
466 83
467 83
468 83
469 83
470 83
471 83
472 83
473 83
474 83
475 83
476 83
441 84
442 84
443 84
444 84
445 84
446 84
447 84
448 84
449 84
450 84
451 84
452 84
453 84
454 84
455 84
456 84
457 84
458 84
459 84
460 84
461 84
462 84
463 84
464 84
465 84
466 84
467 84
468 84
469 84
470 84
471 84
472 84
473 84
474 84
475 84
476 84
441 85
477 85
478 85
479 85
480 85
481 85
482 85
483 85
484 85
485 85
486 85
487 85
488 85
489 85
490 85
491 85
492 85
493 85
494 85
495 85
496 85
497 85
498 85
499 85
500 85
501 85
502 85
503 85
504 85
505 85
506 85
507 85
508 85
509 85
510 85
511 85
512 85
442 86
477 86
478 86
479 86
480 86
481 86
482 86
483 86
484 86
485 86
486 86
487 86
488 86
489 86
490 86
491 86
492 86
493 86
494 86
495 86
496 86
497 86
498 86
499 86
500 86
501 86
502 86
503 86
504 86
505 86
506 86
507 86
508 86
509 86
510 86
511 86
512 86
443 87
477 87
478 87
479 87
480 87
481 87
482 87
483 87
484 87
485 87
486 87
487 87
488 87
489 87
490 87
491 87
492 87
493 87
494 87
495 87
496 87
497 87
498 87
499 87
500 87
501 87
502 87
503 87
504 87
505 87
506 87
507 87
508 87
509 87
510 87
511 87
512 87
444 88
477 88
478 88
479 88
480 88
481 88
482 88
483 88
484 88
485 88
486 88
487 88
488 88
489 88
490 88
491 88
492 88
493 88
494 88
495 88
496 88
497 88
498 88
499 88
500 88
501 88
502 88
503 88
504 88
505 88
506 88
507 88
508 88
509 88
510 88
511 88
512 88
477 89
478 89
479 89
480 89
481 89
482 89
483 89
484 89
485 89
486 89
487 89
488 89
489 89
490 89
491 89
492 89
493 89
494 89
495 89
496 89
497 89
498 89
499 89
500 89
501 89
502 89
503 89
504 89
505 89
506 89
507 89
508 89
509 89
510 89
511 89
512 89
477 90
478 90
479 90
480 90
481 90
482 90
483 90
484 90
485 90
486 90
487 90
488 90
489 90
490 90
491 90
492 90
493 90
494 90
495 90
496 90
497 90
498 90
499 90
500 90
501 90
502 90
503 90
504 90
505 90
506 90
507 90
508 90
509 90
510 90
511 90
512 90
477 91
513 91
514 91
515 91
516 91
517 91
518 91
519 91
520 91
521 91
522 91
523 91
524 91
525 91
526 91
527 91
528 91
529 91
530 91
531 91
532 91
533 91
534 91
535 91
536 91
537 91
538 91
539 91
540 91
541 91
542 91
543 91
544 91
545 91
546 91
547 91
548 91
478 92
513 92
514 92
515 92
516 92
517 92
518 92
519 92
520 92
521 92
522 92
523 92
524 92
525 92
526 92
527 92
528 92
529 92
530 92
531 92
532 92
533 92
534 92
535 92
536 92
537 92
538 92
539 92
540 92
541 92
542 92
543 92
544 92
545 92
546 92
547 92
548 92
479 93
513 93
514 93
515 93
516 93
517 93
518 93
519 93
520 93
521 93
522 93
523 93
524 93
525 93
526 93
527 93
528 93
529 93
530 93
531 93
532 93
533 93
534 93
535 93
536 93
537 93
538 93
539 93
540 93
541 93
542 93
543 93
544 93
545 93
546 93
547 93
548 93
480 94
513 94
514 94
515 94
516 94
517 94
518 94
519 94
520 94
521 94
522 94
523 94
524 94
525 94
526 94
527 94
528 94
529 94
530 94
531 94
532 94
533 94
534 94
535 94
536 94
537 94
538 94
539 94
540 94
541 94
542 94
543 94
544 94
545 94
546 94
547 94
548 94
513 95
514 95
515 95
516 95
517 95
518 95
519 95
520 95
521 95
522 95
523 95
524 95
525 95
526 95
527 95
528 95
529 95
530 95
531 95
532 95
533 95
534 95
535 95
536 95
537 95
538 95
539 95
540 95
541 95
542 95
543 95
544 95
545 95
546 95
547 95
548 95
513 96
514 96
515 96
516 96
517 96
518 96
519 96
520 96
521 96
522 96
523 96
524 96
525 96
526 96
527 96
528 96
529 96
530 96
531 96
532 96
533 96
534 96
535 96
536 96
537 96
538 96
539 96
540 96
541 96
542 96
543 96
544 96
545 96
546 96
547 96
548 96
513 97
549 97
550 97
551 97
552 97
553 97
554 97
555 97
556 97
557 97
558 97
559 97
560 97
561 97
562 97
563 97
564 97
565 97
566 97
567 97
568 97
569 97
570 97
571 97
572 97
573 97
574 97
575 97
576 97
577 97
578 97
579 97
580 97
581 97
582 97
583 97
584 97
514 98
549 98
550 98
551 98
552 98
553 98
554 98
555 98
556 98
557 98
558 98
559 98
560 98
561 98
562 98
563 98
564 98
565 98
566 98
567 98
568 98
569 98
570 98
571 98
572 98
573 98
574 98
575 98
576 98
577 98
578 98
579 98
580 98
581 98
582 98
583 98
584 98
515 99
549 99
550 99
551 99
552 99
553 99
554 99
555 99
556 99
557 99
558 99
559 99
560 99
561 99
562 99
563 99
564 99
565 99
566 99
567 99
568 99
569 99
570 99
571 99
572 99
573 99
574 99
575 99
576 99
577 99
578 99
579 99
580 99
581 99
582 99
583 99
584 99
516 100
549 100
550 100
551 100
552 100
553 100
554 100
555 100
556 100
557 100
558 100
559 100
560 100
561 100
562 100
563 100
564 100
565 100
566 100
567 100
568 100
569 100
570 100
571 100
572 100
573 100
574 100
575 100
576 100
577 100
578 100
579 100
580 100
581 100
582 100
583 100
584 100
549 101
550 101
551 101
552 101
553 101
554 101
555 101
556 101
557 101
558 101
559 101
560 101
561 101
562 101
563 101
564 101
565 101
566 101
567 101
568 101
569 101
570 101
571 101
572 101
573 101
574 101
575 101
576 101
577 101
578 101
579 101
580 101
581 101
582 101
583 101
584 101
549 102
550 102
551 102
552 102
553 102
554 102
555 102
556 102
557 102
558 102
559 102
560 102
561 102
562 102
563 102
564 102
565 102
566 102
567 102
568 102
569 102
570 102
571 102
572 102
573 102
574 102
575 102
576 102
577 102
578 102
579 102
580 102
581 102
582 102
583 102
584 102
549 103
585 103
586 103
587 103
588 103
589 103
590 103
591 103
592 103
593 103
594 103
595 103
596 103
597 103
598 103
599 103
600 103
601 103
602 103
603 103
604 103
605 103
606 103
607 103
608 103
609 103
610 103
611 103
612 103
613 103
614 103
615 103
616 103
617 103
618 103
619 103
620 103
550 104
585 104
586 104
587 104
588 104
589 104
590 104
591 104
592 104
593 104
594 104
595 104
596 104
597 104
598 104
599 104
600 104
601 104
602 104
603 104
604 104
605 104
606 104
607 104
608 104
609 104
610 104
611 104
612 104
613 104
614 104
615 104
616 104
617 104
618 104
619 104
620 104
551 105
585 105
586 105
587 105
588 105
589 105
590 105
591 105
592 105
593 105
594 105
595 105
596 105
597 105
598 105
599 105
600 105
601 105
602 105
603 105
604 105
605 105
606 105
607 105
608 105
609 105
610 105
611 105
612 105
613 105
614 105
615 105
616 105
617 105
618 105
619 105
620 105
552 106
585 106
586 106
587 106
588 106
589 106
590 106
591 106
592 106
593 106
594 106
595 106
596 106
597 106
598 106
599 106
600 106
601 106
602 106
603 106
604 106
605 106
606 106
607 106
608 106
609 106
610 106
611 106
612 106
613 106
614 106
615 106
616 106
617 106
618 106
619 106
620 106
585 107
586 107
587 107
588 107
589 107
590 107
591 107
592 107
593 107
594 107
595 107
596 107
597 107
598 107
599 107
600 107
601 107
602 107
603 107
604 107
605 107
606 107
607 107
608 107
609 107
610 107
611 107
612 107
613 107
614 107
615 107
616 107
617 107
618 107
619 107
620 107
585 108
586 108
587 108
588 108
589 108
590 108
591 108
592 108
593 108
594 108
595 108
596 108
597 108
598 108
599 108
600 108
601 108
602 108
603 108
604 108
605 108
606 108
607 108
608 108
609 108
610 108
611 108
612 108
613 108
614 108
615 108
616 108
617 108
618 108
619 108
620 108
585 109
621 109
622 109
623 109
624 109
625 109
626 109
627 109
628 109
629 109
630 109
631 109
632 109
633 109
634 109
635 109
636 109
637 109
638 109
639 109
640 109
641 109
642 109
643 109
644 109
645 109
646 109
647 109
648 109
649 109
650 109
651 109
652 109
653 109
654 109
655 109
656 109
586 110
621 110
622 110
623 110
624 110
625 110
626 110
627 110
628 110
629 110
630 110
631 110
632 110
633 110
634 110
635 110
636 110
637 110
638 110
639 110
640 110
641 110
642 110
643 110
644 110
645 110
646 110
647 110
648 110
649 110
650 110
651 110
652 110
653 110
654 110
655 110
656 110
587 111
621 111
622 111
623 111
624 111
625 111
626 111
627 111
628 111
629 111
630 111
631 111
632 111
633 111
634 111
635 111
636 111
637 111
638 111
639 111
640 111
641 111
642 111
643 111
644 111
645 111
646 111
647 111
648 111
649 111
650 111
651 111
652 111
653 111
654 111
655 111
656 111
588 112
621 112
622 112
623 112
624 112
625 112
626 112
627 112
628 112
629 112
630 112
631 112
632 112
633 112
634 112
635 112
636 112
637 112
638 112
639 112
640 112
641 112
642 112
643 112
644 112
645 112
646 112
647 112
648 112
649 112
650 112
651 112
652 112
653 112
654 112
655 112
656 112
621 113
622 113
623 113
624 113
625 113
626 113
627 113
628 113
629 113
630 113
631 113
632 113
633 113
634 113
635 113
636 113
637 113
638 113
639 113
640 113
641 113
642 113
643 113
644 113
645 113
646 113
647 113
648 113
649 113
650 113
651 113
652 113
653 113
654 113
655 113
656 113
621 114
622 114
623 114
624 114
625 114
626 114
627 114
628 114
629 114
630 114
631 114
632 114
633 114
634 114
635 114
636 114
637 114
638 114
639 114
640 114
641 114
642 114
643 114
644 114
645 114
646 114
647 114
648 114
649 114
650 114
651 114
652 114
653 114
654 114
655 114
656 114
621 115
657 115
658 115
659 115
660 115
661 115
662 115
663 115
664 115
665 115
666 115
667 115
668 115
669 115
670 115
671 115
672 115
673 115
674 115
675 115
676 115
677 115
678 115
679 115
680 115
681 115
682 115
683 115
684 115
685 115
686 115
687 115
688 115
689 115
690 115
691 115
692 115
622 116
657 116
658 116
659 116
660 116
661 116
662 116
663 116
664 116
665 116
666 116
667 116
668 116
669 116
670 116
671 116
672 116
673 116
674 116
675 116
676 116
677 116
678 116
679 116
680 116
681 116
682 116
683 116
684 116
685 116
686 116
687 116
688 116
689 116
690 116
691 116
692 116
623 117
657 117
658 117
659 117
660 117
661 117
662 117
663 117
664 117
665 117
666 117
667 117
668 117
669 117
670 117
671 117
672 117
673 117
674 117
675 117
676 117
677 117
678 117
679 117
680 117
681 117
682 117
683 117
684 117
685 117
686 117
687 117
688 117
689 117
690 117
691 117
692 117
624 118
657 118
658 118
659 118
660 118
661 118
662 118
663 118
664 118
665 118
666 118
667 118
668 118
669 118
670 118
671 118
672 118
673 118
674 118
675 118
676 118
677 118
678 118
679 118
680 118
681 118
682 118
683 118
684 118
685 118
686 118
687 118
688 118
689 118
690 118
691 118
692 118
657 119
658 119
659 119
660 119
661 119
662 119
663 119
664 119
665 119
666 119
667 119
668 119
669 119
670 119
671 119
672 119
673 119
674 119
675 119
676 119
677 119
678 119
679 119
680 119
681 119
682 119
683 119
684 119
685 119
686 119
687 119
688 119
689 119
690 119
691 119
692 119
657 120
658 120
659 120
660 120
661 120
662 120
663 120
664 120
665 120
666 120
667 120
668 120
669 120
670 120
671 120
672 120
673 120
674 120
675 120
676 120
677 120
678 120
679 120
680 120
681 120
682 120
683 120
684 120
685 120
686 120
687 120
688 120
689 120
690 120
691 120
692 120
657 121
693 121
694 121
695 121
696 121
697 121
698 121
699 121
700 121
658 122
693 122
694 122
695 122
696 122
697 122
698 122
699 122
700 122
659 123
693 123
694 123
695 123
696 123
697 123
698 123
699 123
700 123
660 124
693 124
694 124
695 124
696 124
697 124
698 124
699 124
700 124
693 125
694 125
695 125
696 125
697 125
698 125
699 125
700 125
693 126
694 126
695 126
696 126
697 126
698 126
699 126
700 126
693 127
701 127
702 127
703 127
704 127
705 127
706 127
707 127
708 127
694 128
701 128
702 128
703 128
704 128
705 128
706 128
707 128
708 128
695 129
701 129
702 129
703 129
704 129
705 129
706 129
707 129
708 129
696 130
701 130
702 130
703 130
704 130
705 130
706 130
707 130
708 130
701 131
702 131
703 131
704 131
705 131
706 131
707 131
708 131
701 132
702 132
703 132
704 132
705 132
706 132
707 132
708 132
701 133
709 133
710 133
711 133
712 133
713 133
714 133
715 133
716 133
702 134
709 134
710 134
711 134
712 134
713 134
714 134
715 134
716 134
703 135
709 135
710 135
711 135
712 135
713 135
714 135
715 135
716 135
704 136
709 136
710 136
711 136
712 136
713 136
714 136
715 136
716 136
709 137
710 137
711 137
712 137
713 137
714 137
715 137
716 137
709 138
710 138
711 138
712 138
713 138
714 138
715 138
716 138
709 139
717 139
718 139
719 139
720 139
721 139
722 139
723 139
724 139
710 140
717 140
718 140
719 140
720 140
721 140
722 140
723 140
724 140
711 141
717 141
718 141
719 141
720 141
721 141
722 141
723 141
724 141
712 142
717 142
718 142
719 142
720 142
721 142
722 142
723 142
724 142
717 143
718 143
719 143
720 143
721 143
722 143
723 143
724 143
717 144
718 144
719 144
720 144
721 144
722 144
723 144
724 144
717 145
725 145
726 145
727 145
728 145
729 145
730 145
731 145
732 145
718 146
725 146
726 146
727 146
728 146
729 146
730 146
731 146
732 146
719 147
725 147
726 147
727 147
728 147
729 147
730 147
731 147
732 147
720 148
725 148
726 148
727 148
728 148
729 148
730 148
731 148
732 148
725 149
726 149
727 149
728 149
729 149
730 149
731 149
732 149
725 150
726 150
727 150
728 150
729 150
730 150
731 150
732 150
725 151
733 151
734 151
735 151
736 151
737 151
738 151
739 151
740 151
726 152
733 152
734 152
735 152
736 152
737 152
738 152
739 152
740 152
727 153
733 153
734 153
735 153
736 153
737 153
738 153
739 153
740 153
728 154
733 154
734 154
735 154
736 154
737 154
738 154
739 154
740 154
733 155
734 155
735 155
736 155
737 155
738 155
739 155
740 155
733 156
734 156
735 156
736 156
737 156
738 156
739 156
740 156
733 157
741 157
742 157
743 157
744 157
745 157
746 157
747 157
748 157
734 158
741 158
742 158
743 158
744 158
745 158
746 158
747 158
748 158
735 159
741 159
742 159
743 159
744 159
745 159
746 159
747 159
748 159
736 160
741 160
742 160
743 160
744 160
745 160
746 160
747 160
748 160
741 161
742 161
743 161
744 161
745 161
746 161
747 161
748 161
741 162
742 162
743 162
744 162
745 162
746 162
747 162
748 162
741 163
749 163
750 163
751 163
752 163
753 163
754 163
755 163
756 163
742 164
749 164
750 164
751 164
752 164
753 164
754 164
755 164
756 164
743 165
749 165
750 165
751 165
752 165
753 165
754 165
755 165
756 165
744 166
749 166
750 166
751 166
752 166
753 166
754 166
755 166
756 166
749 167
750 167
751 167
752 167
753 167
754 167
755 167
756 167
749 168
750 168
751 168
752 168
753 168
754 168
755 168
756 168
749 169
757 169
758 169
759 169
760 169
761 169
762 169
763 169
764 169
750 170
757 170
758 170
759 170
760 170
761 170
762 170
763 170
764 170
751 171
757 171
758 171
759 171
760 171
761 171
762 171
763 171
764 171
752 172
757 172
758 172
759 172
760 172
761 172
762 172
763 172
764 172
757 173
758 173
759 173
760 173
761 173
762 173
763 173
764 173
757 174
758 174
759 174
760 174
761 174
762 174
763 174
764 174
757 175
765 175
766 175
767 175
768 175
769 175
770 175
771 175
772 175
758 176
765 176
766 176
767 176
768 176
769 176
770 176
771 176
772 176
759 177
765 177
766 177
767 177
768 177
769 177
770 177
771 177
772 177
760 178
765 178
766 178
767 178
768 178
769 178
770 178
771 178
772 178
765 179
766 179
767 179
768 179
769 179
770 179
771 179
772 179
765 180
766 180
767 180
768 180
769 180
770 180
771 180
772 180
765 181
766 182
767 183
768 184
