%%MatrixMarket matrix coordinate pattern general
1950 1438 5256
1 5
2 5
3 5
4 5
1 6
2 6
3 6
4 6
9 11
10 11
11 11
12 11
9 12
10 12
11 12
12 12
9 13
10 13
11 13
12 13
9 14
10 14
11 14
12 14
9 15
10 15
11 15
12 15
9 16
10 16
11 16
12 16
9 17
10 17
11 17
12 17
9 18
10 18
11 18
12 18
9 19
10 19
11 19
12 19
9 20
10 20
11 20
12 20
9 21
10 21
11 21
12 21
9 22
10 22
11 22
12 22
9 23
10 23
11 23
12 23
9 24
10 24
11 24
12 24
9 25
10 25
11 25
12 25
9 26
10 26
11 26
12 26
9 27
10 27
11 27
12 27
9 28
10 28
11 28
12 28
9 29
10 29
11 29
12 29
9 30
10 30
11 30
12 30
9 31
10 31
11 31
12 31
9 32
10 32
11 32
12 32
9 33
10 33
11 33
12 33
9 34
10 34
11 34
12 34
9 35
10 35
11 35
12 35
9 36
10 36
11 36
12 36
9 37
10 37
11 37
12 37
9 38
10 38
11 38
12 38
9 39
10 39
11 39
12 39
9 40
10 40
11 40
12 40
9 41
10 41
11 41
12 41
9 42
10 42
11 42
12 42
9 43
10 43
11 43
12 43
9 44
10 44
11 44
12 44
9 45
10 45
11 45
12 45
9 46
10 46
11 46
12 46
9 47
10 47
11 47
12 47
9 48
10 48
11 48
12 48
9 49
10 49
11 49
12 49
9 50
10 50
11 50
12 50
9 51
10 51
11 51
12 51
9 52
10 52
11 52
12 52
9 53
10 53
11 53
12 53
9 54
10 54
11 54
12 54
9 55
10 55
11 55
12 55
9 56
10 56
11 56
12 56
9 57
10 57
11 57
12 57
9 58
10 58
11 58
12 58
9 59
10 59
11 59
12 59
9 60
10 60
11 60
12 60
9 61
10 61
11 61
12 61
9 62
10 62
11 62
12 62
9 63
10 63
11 63
12 63
9 64
10 64
11 64
12 64
9 65
10 65
11 65
12 65
9 66
10 66
11 66
12 66
9 67
10 67
11 67
12 67
9 68
10 68
11 68
12 68
9 69
10 69
11 69
12 69
9 70
10 70
11 70
12 70
9 71
10 71
11 71
12 71
9 72
10 72
11 72
12 72
9 73
10 73
11 73
12 73
9 74
10 74
11 74
12 74
9 75
10 75
11 75
12 75
9 76
10 76
11 76
12 76
9 77
10 77
11 77
12 77
9 78
10 78
11 78
12 78
107 83
108 83
109 83
110 83
107 84
108 84
109 84
110 84
107 85
108 85
109 85
110 85
107 86
108 86
109 86
110 86
107 87
108 87
109 87
110 87
107 88
108 88
109 88
110 88
107 89
108 89
109 89
110 89
107 90
108 90
109 90
110 90
107 91
108 91
109 91
110 91
107 92
108 92
109 92
110 92
107 93
108 93
109 93
110 93
107 94
108 94
109 94
110 94
107 95
108 95
109 95
110 95
107 96
108 96
109 96
110 96
107 97
108 97
109 97
110 97
107 98
108 98
109 98
110 98
107 99
108 99
109 99
110 99
107 100
108 100
109 100
110 100
107 101
108 101
109 101
110 101
107 102
108 102
109 102
110 102
107 103
108 103
109 103
110 103
107 104
108 104
109 104
110 104
107 105
108 105
109 105
110 105
107 106
108 106
109 106
110 106
107 107
108 107
109 107
110 107
107 108
108 108
109 108
110 108
107 109
108 109
109 109
110 109
107 110
108 110
109 110
110 110
107 111
108 111
109 111
110 111
107 112
108 112
109 112
110 112
107 113
108 113
109 113
110 113
107 114
108 114
109 114
110 114
107 115
108 115
109 115
110 115
107 116
108 116
109 116
110 116
107 117
108 117
109 117
110 117
107 118
108 118
109 118
110 118
107 119
108 119
109 119
110 119
107 120
108 120
109 120
110 120
107 121
108 121
109 121
110 121
107 122
108 122
109 122
110 122
107 123
108 123
109 123
110 123
107 124
108 124
109 124
110 124
107 125
108 125
109 125
110 125
107 126
108 126
109 126
110 126
107 127
108 127
109 127
110 127
107 128
108 128
109 128
110 128
107 129
108 129
109 129
110 129
107 130
108 130
109 130
110 130
107 131
108 131
109 131
110 131
107 132
108 132
109 132
110 132
107 133
108 133
109 133
110 133
107 134
108 134
109 134
110 134
107 135
108 135
109 135
110 135
107 136
108 136
109 136
110 136
107 137
108 137
109 137
110 137
107 138
108 138
109 138
110 138
107 139
108 139
109 139
110 139
107 140
108 140
109 140
110 140
107 141
108 141
109 141
110 141
107 142
108 142
109 142
110 142
107 143
108 143
109 143
110 143
107 144
108 144
109 144
110 144
107 145
108 145
109 145
110 145
107 146
108 146
109 146
110 146
107 147
108 147
109 147
110 147
107 148
108 148
109 148
110 148
107 149
108 149
109 149
110 149
107 150
108 150
109 150
110 150
205 155
206 155
207 155
208 155
205 156
206 156
207 156
208 156
205 157
206 157
207 157
208 157
205 158
206 158
207 158
208 158
205 159
206 159
207 159
208 159
205 160
206 160
207 160
208 160
205 161
206 161
207 161
208 161
205 162
206 162
207 162
208 162
205 163
206 163
207 163
208 163
205 164
206 164
207 164
208 164
205 165
206 165
207 165
208 165
205 166
206 166
207 166
208 166
205 167
206 167
207 167
208 167
205 168
206 168
207 168
208 168
205 169
206 169
207 169
208 169
205 170
206 170
207 170
208 170
205 171
206 171
207 171
208 171
205 172
206 172
207 172
208 172
205 173
206 173
207 173
208 173
205 174
206 174
207 174
208 174
205 175
206 175
207 175
208 175
205 176
206 176
207 176
208 176
205 177
206 177
207 177
208 177
205 178
206 178
207 178
208 178
205 179
206 179
207 179
208 179
205 180
206 180
207 180
208 180
205 181
206 181
207 181
208 181
205 182
206 182
207 182
208 182
205 183
206 183
207 183
208 183
205 184
206 184
207 184
208 184
205 185
206 185
207 185
208 185
205 186
206 186
207 186
208 186
205 187
206 187
207 187
208 187
205 188
206 188
207 188
208 188
205 189
206 189
207 189
208 189
205 190
206 190
207 190
208 190
205 191
206 191
207 191
208 191
205 192
206 192
207 192
208 192
205 193
206 193
207 193
208 193
205 194
206 194
207 194
208 194
205 195
206 195
207 195
208 195
205 196
206 196
207 196
208 196
205 197
206 197
207 197
208 197
205 198
206 198
207 198
208 198
205 199
206 199
207 199
208 199
205 200
206 200
207 200
208 200
205 201
206 201
207 201
208 201
205 202
206 202
207 202
208 202
205 203
206 203
207 203
208 203
205 204
206 204
207 204
208 204
205 205
206 205
207 205
208 205
205 206
206 206
207 206
208 206
205 207
206 207
207 207
208 207
205 208
206 208
207 208
208 208
205 209
206 209
207 209
208 209
205 210
206 210
207 210
208 210
205 211
206 211
207 211
208 211
205 212
206 212
207 212
208 212
205 213
206 213
207 213
208 213
205 214
206 214
207 214
208 214
205 215
206 215
207 215
208 215
205 216
206 216
207 216
208 216
205 217
206 217
207 217
208 217
205 218
206 218
207 218
208 218
205 219
206 219
207 219
208 219
205 220
206 220
207 220
208 220
205 221
206 221
207 221
208 221
205 222
206 222
207 222
208 222
303 227
304 227
305 227
306 227
303 228
304 228
305 228
306 228
303 229
304 229
305 229
306 229
303 230
304 230
305 230
306 230
303 231
304 231
305 231
306 231
303 232
304 232
305 232
306 232
303 233
304 233
305 233
306 233
303 234
304 234
305 234
306 234
303 235
304 235
305 235
306 235
303 236
304 236
305 236
306 236
303 237
304 237
305 237
306 237
303 238
304 238
305 238
306 238
303 239
304 239
305 239
306 239
303 240
304 240
305 240
306 240
303 241
304 241
305 241
306 241
303 242
304 242
305 242
306 242
303 243
304 243
305 243
306 243
303 244
304 244
305 244
306 244
303 245
304 245
305 245
306 245
303 246
304 246
305 246
306 246
303 247
304 247
305 247
306 247
303 248
304 248
305 248
306 248
303 249
304 249
305 249
306 249
303 250
304 250
305 250
306 250
303 251
304 251
305 251
306 251
303 252
304 252
305 252
306 252
303 253
304 253
305 253
306 253
303 254
304 254
305 254
306 254
303 255
304 255
305 255
306 255
303 256
304 256
305 256
306 256
303 257
304 257
305 257
306 257
303 258
304 258
305 258
306 258
303 259
304 259
305 259
306 259
303 260
304 260
305 260
306 260
303 261
304 261
305 261
306 261
303 262
304 262
305 262
306 262
303 263
304 263
305 263
306 263
303 264
304 264
305 264
306 264
303 265
304 265
305 265
306 265
303 266
304 266
305 266
306 266
303 267
304 267
305 267
306 267
303 268
304 268
305 268
306 268
303 269
304 269
305 269
306 269
303 270
304 270
305 270
306 270
303 271
304 271
305 271
306 271
303 272
304 272
305 272
306 272
303 273
304 273
305 273
306 273
303 274
304 274
305 274
306 274
303 275
304 275
305 275
306 275
303 276
304 276
305 276
306 276
303 277
304 277
305 277
306 277
303 278
304 278
305 278
306 278
303 279
304 279
305 279
306 279
303 280
304 280
305 280
306 280
303 281
304 281
305 281
306 281
303 282
304 282
305 282
306 282
303 283
304 283
305 283
306 283
303 284
304 284
305 284
306 284
303 285
304 285
305 285
306 285
303 286
304 286
305 286
306 286
303 287
304 287
305 287
306 287
303 288
304 288
305 288
306 288
303 289
304 289
305 289
306 289
303 290
304 290
305 290
306 290
303 291
304 291
305 291
306 291
303 292
304 292
305 292
306 292
303 293
304 293
305 293
306 293
303 294
304 294
305 294
306 294
401 299
402 299
403 299
404 299
401 300
402 300
403 300
404 300
401 301
402 301
403 301
404 301
401 302
402 302
403 302
404 302
401 303
402 303
403 303
404 303
401 304
402 304
403 304
404 304
401 305
402 305
403 305
404 305
401 306
402 306
403 306
404 306
401 307
402 307
403 307
404 307
401 308
402 308
403 308
404 308
401 309
402 309
403 309
404 309
401 310
402 310
403 310
404 310
401 311
402 311
403 311
404 311
401 312
402 312
403 312
404 312
401 313
402 313
403 313
404 313
401 314
402 314
403 314
404 314
401 315
402 315
403 315
404 315
401 316
402 316
403 316
404 316
401 317
402 317
403 317
404 317
401 318
402 318
403 318
404 318
401 319
402 319
403 319
404 319
401 320
402 320
403 320
404 320
401 321
402 321
403 321
404 321
401 322
402 322
403 322
404 322
401 323
402 323
403 323
404 323
401 324
402 324
403 324
404 324
401 325
402 325
403 325
404 325
401 326
402 326
403 326
404 326
401 327
402 327
403 327
404 327
401 328
402 328
403 328
404 328
401 329
402 329
403 329
404 329
401 330
402 330
403 330
404 330
401 331
402 331
403 331
404 331
401 332
402 332
403 332
404 332
401 333
402 333
403 333
404 333
401 334
402 334
403 334
404 334
401 335
402 335
403 335
404 335
401 336
402 336
403 336
404 336
401 337
402 337
403 337
404 337
401 338
402 338
403 338
404 338
401 339
402 339
403 339
404 339
401 340
402 340
403 340
404 340
401 341
402 341
403 341
404 341
401 342
402 342
403 342
404 342
401 343
402 343
403 343
404 343
401 344
402 344
403 344
404 344
401 345
402 345
403 345
404 345
401 346
402 346
403 346
404 346
401 347
402 347
403 347
404 347
401 348
402 348
403 348
404 348
401 349
402 349
403 349
404 349
401 350
402 350
403 350
404 350
401 351
402 351
403 351
404 351
401 352
402 352
403 352
404 352
401 353
402 353
403 353
404 353
401 354
402 354
403 354
404 354
401 355
402 355
403 355
404 355
401 356
402 356
403 356
404 356
401 357
402 357
403 357
404 357
401 358
402 358
403 358
404 358
401 359
402 359
403 359
404 359
401 360
402 360
403 360
404 360
401 361
402 361
403 361
404 361
401 362
402 362
403 362
404 362
401 363
402 363
403 363
404 363
401 364
402 364
403 364
404 364
401 365
402 365
403 365
404 365
401 366
402 366
403 366
404 366
499 371
500 371
501 371
502 371
499 372
500 372
501 372
502 372
499 373
500 373
501 373
502 373
499 374
500 374
501 374
502 374
499 375
500 375
501 375
502 375
499 376
500 376
501 376
502 376
499 377
500 377
501 377
502 377
499 378
500 378
501 378
502 378
499 379
500 379
501 379
502 379
499 380
500 380
501 380
502 380
499 381
500 381
501 381
502 381
499 382
500 382
501 382
502 382
499 383
500 383
501 383
502 383
499 384
500 384
501 384
502 384
499 385
500 385
501 385
502 385
499 386
500 386
501 386
502 386
499 387
500 387
501 387
502 387
499 388
500 388
501 388
502 388
499 389
500 389
501 389
502 389
499 390
500 390
501 390
502 390
499 391
500 391
501 391
502 391
499 392
500 392
501 392
502 392
499 393
500 393
501 393
502 393
499 394
500 394
501 394
502 394
499 395
500 395
501 395
502 395
499 396
500 396
501 396
502 396
499 397
500 397
501 397
502 397
499 398
500 398
501 398
502 398
499 399
500 399
501 399
502 399
499 400
500 400
501 400
502 400
499 401
500 401
501 401
502 401
499 402
500 402
501 402
502 402
499 403
500 403
501 403
502 403
499 404
500 404
501 404
502 404
499 405
500 405
501 405
502 405
499 406
500 406
501 406
502 406
499 407
500 407
501 407
502 407
499 408
500 408
501 408
502 408
499 409
500 409
501 409
502 409
499 410
500 410
501 410
502 410
499 411
500 411
501 411
502 411
499 412
500 412
501 412
502 412
499 413
500 413
501 413
502 413
499 414
500 414
501 414
502 414
499 415
500 415
501 415
502 415
499 416
500 416
501 416
502 416
499 417
500 417
501 417
502 417
499 418
500 418
501 418
502 418
499 419
500 419
501 419
502 419
499 420
500 420
501 420
502 420
499 421
500 421
501 421
502 421
499 422
500 422
501 422
502 422
499 423
500 423
501 423
502 423
499 424
500 424
501 424
502 424
499 425
500 425
501 425
502 425
499 426
500 426
501 426
502 426
499 427
500 427
501 427
502 427
499 428
500 428
501 428
502 428
499 429
500 429
501 429
502 429
499 430
500 430
501 430
502 430
499 431
500 431
501 431
502 431
499 432
500 432
501 432
502 432
499 433
500 433
501 433
502 433
499 434
500 434
501 434
502 434
499 435
500 435
501 435
502 435
499 436
500 436
501 436
502 436
499 437
500 437
501 437
502 437
499 438
500 438
501 438
502 438
597 443
598 443
599 443
600 443
597 444
598 444
599 444
600 444
597 445
598 445
599 445
600 445
597 446
598 446
599 446
600 446
597 447
598 447
599 447
600 447
597 448
598 448
599 448
600 448
597 449
598 449
599 449
600 449
597 450
598 450
599 450
600 450
597 451
598 451
599 451
600 451
597 452
598 452
599 452
600 452
597 453
598 453
599 453
600 453
597 454
598 454
599 454
600 454
597 455
598 455
599 455
600 455
597 456
598 456
599 456
600 456
597 457
598 457
599 457
600 457
597 458
598 458
599 458
600 458
597 459
598 459
599 459
600 459
597 460
598 460
599 460
600 460
597 461
598 461
599 461
600 461
597 462
598 462
599 462
600 462
597 463
598 463
599 463
600 463
597 464
598 464
599 464
600 464
597 465
598 465
599 465
600 465
597 466
598 466
599 466
600 466
597 467
598 467
599 467
600 467
597 468
598 468
599 468
600 468
597 469
598 469
599 469
600 469
597 470
598 470
599 470
600 470
597 471
598 471
599 471
600 471
597 472
598 472
599 472
600 472
597 473
598 473
599 473
600 473
597 474
598 474
599 474
600 474
597 475
598 475
599 475
600 475
597 476
598 476
599 476
600 476
597 477
598 477
599 477
600 477
597 478
598 478
599 478
600 478
597 479
598 479
599 479
600 479
597 480
598 480
599 480
600 480
597 481
598 481
599 481
600 481
597 482
598 482
599 482
600 482
597 483
598 483
599 483
600 483
597 484
598 484
599 484
600 484
597 485
598 485
599 485
600 485
597 486
598 486
599 486
600 486
597 487
598 487
599 487
600 487
597 488
598 488
599 488
600 488
597 489
598 489
599 489
600 489
597 490
598 490
599 490
600 490
597 491
598 491
599 491
600 491
597 492
598 492
599 492
600 492
597 493
598 493
599 493
600 493
597 494
598 494
599 494
600 494
597 495
598 495
599 495
600 495
597 496
598 496
599 496
600 496
597 497
598 497
599 497
600 497
597 498
598 498
599 498
600 498
597 499
598 499
599 499
600 499
597 500
598 500
599 500
600 500
597 501
598 501
599 501
600 501
597 502
598 502
599 502
600 502
597 503
598 503
599 503
600 503
597 504
598 504
599 504
600 504
597 505
598 505
599 505
600 505
597 506
598 506
599 506
600 506
597 507
598 507
599 507
600 507
597 508
598 508
599 508
600 508
597 509
598 509
599 509
600 509
597 510
598 510
599 510
600 510
695 515
696 515
697 515
698 515
695 516
696 516
697 516
698 516
695 517
696 517
697 517
698 517
695 518
696 518
697 518
698 518
695 519
696 519
697 519
698 519
695 520
696 520
697 520
698 520
695 521
696 521
697 521
698 521
695 522
696 522
697 522
698 522
695 523
696 523
697 523
698 523
695 524
696 524
697 524
698 524
695 525
696 525
697 525
698 525
695 526
696 526
697 526
698 526
695 527
696 527
697 527
698 527
695 528
696 528
697 528
698 528
695 529
696 529
697 529
698 529
695 530
696 530
697 530
698 530
695 531
696 531
697 531
698 531
695 532
696 532
697 532
698 532
695 533
696 533
697 533
698 533
695 534
696 534
697 534
698 534
695 535
696 535
697 535
698 535
695 536
696 536
697 536
698 536
695 537
696 537
697 537
698 537
695 538
696 538
697 538
698 538
695 539
696 539
697 539
698 539
695 540
696 540
697 540
698 540
695 541
696 541
697 541
698 541
695 542
696 542
697 542
698 542
695 543
696 543
697 543
698 543
695 544
696 544
697 544
698 544
695 545
696 545
697 545
698 545
695 546
696 546
697 546
698 546
695 547
696 547
697 547
698 547
695 548
696 548
697 548
698 548
695 549
696 549
697 549
698 549
695 550
696 550
697 550
698 550
695 551
696 551
697 551
698 551
695 552
696 552
697 552
698 552
695 553
696 553
697 553
698 553
695 554
696 554
697 554
698 554
695 555
696 555
697 555
698 555
695 556
696 556
697 556
698 556
695 557
696 557
697 557
698 557
695 558
696 558
697 558
698 558
695 559
696 559
697 559
698 559
695 560
696 560
697 560
698 560
695 561
696 561
697 561
698 561
695 562
696 562
697 562
698 562
695 563
696 563
697 563
698 563
695 564
696 564
697 564
698 564
695 565
696 565
697 565
698 565
695 566
696 566
697 566
698 566
695 567
696 567
697 567
698 567
695 568
696 568
697 568
698 568
695 569
696 569
697 569
698 569
695 570
696 570
697 570
698 570
695 571
696 571
697 571
698 571
695 572
696 572
697 572
698 572
695 573
696 573
697 573
698 573
695 574
696 574
697 574
698 574
695 575
696 575
697 575
698 575
695 576
696 576
697 576
698 576
695 577
696 577
697 577
698 577
695 578
696 578
697 578
698 578
695 579
696 579
697 579
698 579
695 580
696 580
697 580
698 580
695 581
696 581
697 581
698 581
695 582
696 582
697 582
698 582
793 587
794 587
795 587
796 587
793 588
794 588
795 588
796 588
793 589
794 589
795 589
796 589
793 590
794 590
795 590
796 590
793 591
794 591
795 591
796 591
793 592
794 592
795 592
796 592
793 593
794 593
795 593
796 593
793 594
794 594
795 594
796 594
793 595
794 595
795 595
796 595
793 596
794 596
795 596
796 596
793 597
794 597
795 597
796 597
793 598
794 598
795 598
796 598
793 599
794 599
795 599
796 599
793 600
794 600
795 600
796 600
793 601
794 601
795 601
796 601
793 602
794 602
795 602
796 602
793 603
794 603
795 603
796 603
793 604
794 604
795 604
796 604
793 605
794 605
795 605
796 605
793 606
794 606
795 606
796 606
793 607
794 607
795 607
796 607
793 608
794 608
795 608
796 608
793 609
794 609
795 609
796 609
793 610
794 610
795 610
796 610
793 611
794 611
795 611
796 611
793 612
794 612
795 612
796 612
793 613
794 613
795 613
796 613
793 614
794 614
795 614
796 614
793 615
794 615
795 615
796 615
793 616
794 616
795 616
796 616
793 617
794 617
795 617
796 617
793 618
794 618
795 618
796 618
793 619
794 619
795 619
796 619
793 620
794 620
795 620
796 620
793 621
794 621
795 621
796 621
793 622
794 622
795 622
796 622
793 623
794 623
795 623
796 623
793 624
794 624
795 624
796 624
793 625
794 625
795 625
796 625
793 626
794 626
795 626
796 626
793 627
794 627
795 627
796 627
793 628
794 628
795 628
796 628
793 629
794 629
795 629
796 629
793 630
794 630
795 630
796 630
793 631
794 631
795 631
796 631
793 632
794 632
795 632
796 632
793 633
794 633
795 633
796 633
793 634
794 634
795 634
796 634
793 635
794 635
795 635
796 635
793 636
794 636
795 636
796 636
793 637
794 637
795 637
796 637
793 638
794 638
795 638
796 638
793 639
794 639
795 639
796 639
793 640
794 640
795 640
796 640
793 641
794 641
795 641
796 641
793 642
794 642
795 642
796 642
793 643
794 643
795 643
796 643
793 644
794 644
795 644
796 644
793 645
794 645
795 645
796 645
793 646
794 646
795 646
796 646
793 647
794 647
795 647
796 647
793 648
794 648
795 648
796 648
793 649
794 649
795 649
796 649
793 650
794 650
795 650
796 650
793 651
794 651
795 651
796 651
793 652
794 652
795 652
796 652
793 653
794 653
795 653
796 653
793 654
794 654
795 654
796 654
891 659
892 659
893 659
894 659
891 660
892 660
893 660
894 660
891 661
892 661
893 661
894 661
891 662
892 662
893 662
894 662
891 663
892 663
893 663
894 663
891 664
892 664
893 664
894 664
891 665
892 665
893 665
894 665
891 666
892 666
893 666
894 666
891 667
892 667
893 667
894 667
891 668
892 668
893 668
894 668
891 669
892 669
893 669
894 669
891 670
892 670
893 670
894 670
891 671
892 671
893 671
894 671
891 672
892 672
893 672
894 672
891 673
892 673
893 673
894 673
891 674
892 674
893 674
894 674
891 675
892 675
893 675
894 675
891 676
892 676
893 676
894 676
891 677
892 677
893 677
894 677
891 678
892 678
893 678
894 678
891 679
892 679
893 679
894 679
891 680
892 680
893 680
894 680
891 681
892 681
893 681
894 681
891 682
892 682
893 682
894 682
891 683
892 683
893 683
894 683
891 684
892 684
893 684
894 684
891 685
892 685
893 685
894 685
891 686
892 686
893 686
894 686
891 687
892 687
893 687
894 687
891 688
892 688
893 688
894 688
891 689
892 689
893 689
894 689
891 690
892 690
893 690
894 690
891 691
892 691
893 691
894 691
891 692
892 692
893 692
894 692
891 693
892 693
893 693
894 693
891 694
892 694
893 694
894 694
891 695
892 695
893 695
894 695
891 696
892 696
893 696
894 696
891 697
892 697
893 697
894 697
891 698
892 698
893 698
894 698
891 699
892 699
893 699
894 699
891 700
892 700
893 700
894 700
891 701
892 701
893 701
894 701
891 702
892 702
893 702
894 702
891 703
892 703
893 703
894 703
891 704
892 704
893 704
894 704
891 705
892 705
893 705
894 705
891 706
892 706
893 706
894 706
891 707
892 707
893 707
894 707
891 708
892 708
893 708
894 708
891 709
892 709
893 709
894 709
891 710
892 710
893 710
894 710
891 711
892 711
893 711
894 711
891 712
892 712
893 712
894 712
891 713
892 713
893 713
894 713
891 714
892 714
893 714
894 714
891 715
892 715
893 715
894 715
891 716
892 716
893 716
894 716
891 717
892 717
893 717
894 717
891 718
892 718
893 718
894 718
891 719
892 719
893 719
894 719
891 720
892 720
893 720
894 720
891 721
892 721
893 721
894 721
891 722
892 722
893 722
894 722
891 723
892 723
893 723
894 723
891 724
892 724
893 724
894 724
891 725
892 725
893 725
894 725
891 726
892 726
893 726
894 726
989 731
990 731
991 731
992 731
989 732
990 732
991 732
992 732
989 733
990 733
991 733
992 733
989 734
990 734
991 734
992 734
989 735
990 735
991 735
992 735
989 736
990 736
991 736
992 736
989 737
990 737
991 737
992 737
989 738
990 738
991 738
992 738
989 739
990 739
991 739
992 739
989 740
990 740
991 740
992 740
989 741
990 741
991 741
992 741
989 742
990 742
991 742
992 742
989 743
990 743
991 743
992 743
989 744
990 744
991 744
992 744
989 745
990 745
991 745
992 745
989 746
990 746
991 746
992 746
989 747
990 747
991 747
992 747
989 748
990 748
991 748
992 748
989 749
990 749
991 749
992 749
989 750
990 750
991 750
992 750
989 751
990 751
991 751
992 751
989 752
990 752
991 752
992 752
989 753
990 753
991 753
992 753
989 754
990 754
991 754
992 754
989 755
990 755
991 755
992 755
989 756
990 756
991 756
992 756
989 757
990 757
991 757
992 757
989 758
990 758
991 758
992 758
989 759
990 759
991 759
992 759
989 760
990 760
991 760
992 760
989 761
990 761
991 761
992 761
989 762
990 762
991 762
992 762
989 763
990 763
991 763
992 763
989 764
990 764
991 764
992 764
989 765
990 765
991 765
992 765
989 766
990 766
991 766
992 766
989 767
990 767
991 767
992 767
989 768
990 768
991 768
992 768
989 769
990 769
991 769
992 769
989 770
990 770
991 770
992 770
989 771
990 771
991 771
992 771
989 772
990 772
991 772
992 772
989 773
990 773
991 773
992 773
989 774
990 774
991 774
992 774
989 775
990 775
991 775
992 775
989 776
990 776
991 776
992 776
989 777
990 777
991 777
992 777
989 778
990 778
991 778
992 778
989 779
990 779
991 779
992 779
989 780
990 780
991 780
992 780
989 781
990 781
991 781
992 781
989 782
990 782
991 782
992 782
989 783
990 783
991 783
992 783
989 784
990 784
991 784
992 784
989 785
990 785
991 785
992 785
989 786
990 786
991 786
992 786
989 787
990 787
991 787
992 787
989 788
990 788
991 788
992 788
989 789
990 789
991 789
992 789
989 790
990 790
991 790
992 790
989 791
990 791
991 791
992 791
989 792
990 792
991 792
992 792
989 793
990 793
991 793
992 793
989 794
990 794
991 794
992 794
989 795
990 795
991 795
992 795
989 796
990 796
991 796
992 796
989 797
990 797
991 797
992 797
989 798
990 798
991 798
992 798
1087 803
1088 803
1089 803
1090 803
1087 804
1088 804
1089 804
1090 804
1087 805
1088 805
1089 805
1090 805
1087 806
1088 806
1089 806
1090 806
1087 807
1088 807
1089 807
1090 807
1087 808
1088 808
1089 808
1090 808
1087 809
1088 809
1089 809
1090 809
1087 810
1088 810
1089 810
1090 810
1087 811
1088 811
1089 811
1090 811
1087 812
1088 812
1089 812
1090 812
1087 813
1088 813
1089 813
1090 813
1087 814
1088 814
1089 814
1090 814
1087 815
1088 815
1089 815
1090 815
1087 816
1088 816
1089 816
1090 816
1087 817
1088 817
1089 817
1090 817
1087 818
1088 818
1089 818
1090 818
1087 819
1088 819
1089 819
1090 819
1087 820
1088 820
1089 820
1090 820
1087 821
1088 821
1089 821
1090 821
1087 822
1088 822
1089 822
1090 822
1087 823
1088 823
1089 823
1090 823
1087 824
1088 824
1089 824
1090 824
1087 825
1088 825
1089 825
1090 825
1087 826
1088 826
1089 826
1090 826
1087 827
1088 827
1089 827
1090 827
1087 828
1088 828
1089 828
1090 828
1087 829
1088 829
1089 829
1090 829
1087 830
1088 830
1089 830
1090 830
1087 831
1088 831
1089 831
1090 831
1087 832
1088 832
1089 832
1090 832
1087 833
1088 833
1089 833
1090 833
1087 834
1088 834
1089 834
1090 834
1087 835
1088 835
1089 835
1090 835
1087 836
1088 836
1089 836
1090 836
1087 837
1088 837
1089 837
1090 837
1087 838
1088 838
1089 838
1090 838
1087 839
1088 839
1089 839
1090 839
1087 840
1088 840
1089 840
1090 840
1087 841
1088 841
1089 841
1090 841
1087 842
1088 842
1089 842
1090 842
1087 843
1088 843
1089 843
1090 843
1087 844
1088 844
1089 844
1090 844
1087 845
1088 845
1089 845
1090 845
1087 846
1088 846
1089 846
1090 846
1087 847
1088 847
1089 847
1090 847
1087 848
1088 848
1089 848
1090 848
1087 849
1088 849
1089 849
1090 849
1087 850
1088 850
1089 850
1090 850
1087 851
1088 851
1089 851
1090 851
1087 852
1088 852
1089 852
1090 852
1087 853
1088 853
1089 853
1090 853
1087 854
1088 854
1089 854
1090 854
1087 855
1088 855
1089 855
1090 855
1087 856
1088 856
1089 856
1090 856
1087 857
1088 857
1089 857
1090 857
1087 858
1088 858
1089 858
1090 858
1087 859
1088 859
1089 859
1090 859
1087 860
1088 860
1089 860
1090 860
1087 861
1088 861
1089 861
1090 861
1087 862
1088 862
1089 862
1090 862
1087 863
1088 863
1089 863
1090 863
1087 864
1088 864
1089 864
1090 864
1087 865
1088 865
1089 865
1090 865
1087 866
1088 866
1089 866
1090 866
1087 867
1088 867
1089 867
1090 867
1087 868
1088 868
1089 868
1090 868
1087 869
1088 869
1089 869
1090 869
1087 870
1088 870
1089 870
1090 870
1185 875
1186 875
1187 875
1188 875
1185 876
1186 876
1187 876
1188 876
1185 877
1186 877
1187 877
1188 877
1185 878
1186 878
1187 878
1188 878
1185 879
1186 879
1187 879
1188 879
1185 880
1186 880
1187 880
1188 880
1185 881
1186 881
1187 881
1188 881
1185 882
1186 882
1187 882
1188 882
1185 883
1186 883
1187 883
1188 883
1185 884
1186 884
1187 884
1188 884
1185 885
1186 885
1187 885
1188 885
1185 886
1186 886
1187 886
1188 886
1185 887
1186 887
1187 887
1188 887
1185 888
1186 888
1187 888
1188 888
1185 889
1186 889
1187 889
1188 889
1185 890
1186 890
1187 890
1188 890
1185 891
1186 891
1187 891
1188 891
1185 892
1186 892
1187 892
1188 892
1185 893
1186 893
1187 893
1188 893
1185 894
1186 894
1187 894
1188 894
1185 895
1186 895
1187 895
1188 895
1185 896
1186 896
1187 896
1188 896
1185 897
1186 897
1187 897
1188 897
1185 898
1186 898
1187 898
1188 898
1185 899
1186 899
1187 899
1188 899
1185 900
1186 900
1187 900
1188 900
1185 901
1186 901
1187 901
1188 901
1185 902
1186 902
1187 902
1188 902
1185 903
1186 903
1187 903
1188 903
1185 904
1186 904
1187 904
1188 904
1185 905
1186 905
1187 905
1188 905
1185 906
1186 906
1187 906
1188 906
1185 907
1186 907
1187 907
1188 907
1185 908
1186 908
1187 908
1188 908
1185 909
1186 909
1187 909
1188 909
1185 910
1186 910
1187 910
1188 910
1185 911
1186 911
1187 911
1188 911
1185 912
1186 912
1187 912
1188 912
1185 913
1186 913
1187 913
1188 913
1185 914
1186 914
1187 914
1188 914
1185 915
1186 915
1187 915
1188 915
1185 916
1186 916
1187 916
1188 916
1185 917
1186 917
1187 917
1188 917
1185 918
1186 918
1187 918
1188 918
1185 919
1186 919
1187 919
1188 919
1185 920
1186 920
1187 920
1188 920
1185 921
1186 921
1187 921
1188 921
1185 922
1186 922
1187 922
1188 922
1185 923
1186 923
1187 923
1188 923
1185 924
1186 924
1187 924
1188 924
1185 925
1186 925
1187 925
1188 925
1185 926
1186 926
1187 926
1188 926
1185 927
1186 927
1187 927
1188 927
1185 928
1186 928
1187 928
1188 928
1185 929
1186 929
1187 929
1188 929
1185 930
1186 930
1187 930
1188 930
1185 931
1186 931
1187 931
1188 931
1185 932
1186 932
1187 932
1188 932
1185 933
1186 933
1187 933
1188 933
1185 934
1186 934
1187 934
1188 934
1185 935
1186 935
1187 935
1188 935
1185 936
1186 936
1187 936
1188 936
1185 937
1186 937
1187 937
1188 937
1185 938
1186 938
1187 938
1188 938
1185 939
1186 939
1187 939
1188 939
1185 940
1186 940
1187 940
1188 940
1185 941
1186 941
1187 941
1188 941
1185 942
1186 942
1187 942
1188 942
1283 947
1284 947
1285 947
1286 947
1283 948
1284 948
1285 948
1286 948
1283 949
1284 949
1285 949
1286 949
1283 950
1284 950
1285 950
1286 950
1283 951
1284 951
1285 951
1286 951
1283 952
1284 952
1285 952
1286 952
1283 953
1284 953
1285 953
1286 953
1283 954
1284 954
1285 954
1286 954
1283 955
1284 955
1285 955
1286 955
1283 956
1284 956
1285 956
1286 956
1283 957
1284 957
1285 957
1286 957
1283 958
1284 958
1285 958
1286 958
1283 959
1284 959
1285 959
1286 959
1283 960
1284 960
1285 960
1286 960
1283 961
1284 961
1285 961
1286 961
1283 962
1284 962
1285 962
1286 962
1283 963
1284 963
1285 963
1286 963
1283 964
1284 964
1285 964
1286 964
1283 965
1284 965
1285 965
1286 965
1283 966
1284 966
1285 966
1286 966
1283 967
1284 967
1285 967
1286 967
1283 968
1284 968
1285 968
1286 968
1283 969
1284 969
1285 969
1286 969
1283 970
1284 970
1285 970
1286 970
1283 971
1284 971
1285 971
1286 971
1283 972
1284 972
1285 972
1286 972
1283 973
1284 973
1285 973
1286 973
1283 974
1284 974
1285 974
1286 974
1283 975
1284 975
1285 975
1286 975
1283 976
1284 976
1285 976
1286 976
1283 977
1284 977
1285 977
1286 977
1283 978
1284 978
1285 978
1286 978
1283 979
1284 979
1285 979
1286 979
1283 980
1284 980
1285 980
1286 980
1283 981
1284 981
1285 981
1286 981
1283 982
1284 982
1285 982
1286 982
1283 983
1284 983
1285 983
1286 983
1283 984
1284 984
1285 984
1286 984
1283 985
1284 985
1285 985
1286 985
1283 986
1284 986
1285 986
1286 986
1283 987
1284 987
1285 987
1286 987
1283 988
1284 988
1285 988
1286 988
1283 989
1284 989
1285 989
1286 989
1283 990
1284 990
1285 990
1286 990
1283 991
1284 991
1285 991
1286 991
1283 992
1284 992
1285 992
1286 992
1283 993
1284 993
1285 993
1286 993
1283 994
1284 994
1285 994
1286 994
1283 995
1284 995
1285 995
1286 995
1283 996
1284 996
1285 996
1286 996
1283 997
1284 997
1285 997
1286 997
1283 998
1284 998
1285 998
1286 998
1283 999
1284 999
1285 999
1286 999
1283 1000
1284 1000
1285 1000
1286 1000
1283 1001
1284 1001
1285 1001
1286 1001
1283 1002
1284 1002
1285 1002
1286 1002
1283 1003
1284 1003
1285 1003
1286 1003
1283 1004
1284 1004
1285 1004
1286 1004
1283 1005
1284 1005
1285 1005
1286 1005
1283 1006
1284 1006
1285 1006
1286 1006
1283 1007
1284 1007
1285 1007
1286 1007
1283 1008
1284 1008
1285 1008
1286 1008
1283 1009
1284 1009
1285 1009
1286 1009
1283 1010
1284 1010
1285 1010
1286 1010
1283 1011
1284 1011
1285 1011
1286 1011
1283 1012
1284 1012
1285 1012
1286 1012
1283 1013
1284 1013
1285 1013
1286 1013
1283 1014
1284 1014
1285 1014
1286 1014
1381 1019
1382 1019
1383 1019
1384 1019
1381 1020
1382 1020
1383 1020
1384 1020
1381 1021
1382 1021
1383 1021
1384 1021
1381 1022
1382 1022
1383 1022
1384 1022
1381 1023
1382 1023
1383 1023
1384 1023
1381 1024
1382 1024
1383 1024
1384 1024
1381 1025
1382 1025
1383 1025
1384 1025
1381 1026
1382 1026
1383 1026
1384 1026
1381 1027
1382 1027
1383 1027
1384 1027
1381 1028
1382 1028
1383 1028
1384 1028
1381 1029
1382 1029
1383 1029
1384 1029
1381 1030
1382 1030
1383 1030
1384 1030
1381 1031
1382 1031
1383 1031
1384 1031
1381 1032
1382 1032
1383 1032
1384 1032
1381 1033
1382 1033
1383 1033
1384 1033
1381 1034
1382 1034
1383 1034
1384 1034
1381 1035
1382 1035
1383 1035
1384 1035
1381 1036
1382 1036
1383 1036
1384 1036
1381 1037
1382 1037
1383 1037
1384 1037
1381 1038
1382 1038
1383 1038
1384 1038
1381 1039
1382 1039
1383 1039
1384 1039
1381 1040
1382 1040
1383 1040
1384 1040
1381 1041
1382 1041
1383 1041
1384 1041
1381 1042
1382 1042
1383 1042
1384 1042
1381 1043
1382 1043
1383 1043
1384 1043
1381 1044
1382 1044
1383 1044
1384 1044
1381 1045
1382 1045
1383 1045
1384 1045
1381 1046
1382 1046
1383 1046
1384 1046
1381 1047
1382 1047
1383 1047
1384 1047
1381 1048
1382 1048
1383 1048
1384 1048
1381 1049
1382 1049
1383 1049
1384 1049
1381 1050
1382 1050
1383 1050
1384 1050
1381 1051
1382 1051
1383 1051
1384 1051
1381 1052
1382 1052
1383 1052
1384 1052
1381 1053
1382 1053
1383 1053
1384 1053
1381 1054
1382 1054
1383 1054
1384 1054
1381 1055
1382 1055
1383 1055
1384 1055
1381 1056
1382 1056
1383 1056
1384 1056
1381 1057
1382 1057
1383 1057
1384 1057
1381 1058
1382 1058
1383 1058
1384 1058
1381 1059
1382 1059
1383 1059
1384 1059
1381 1060
1382 1060
1383 1060
1384 1060
1381 1061
1382 1061
1383 1061
1384 1061
1381 1062
1382 1062
1383 1062
1384 1062
1381 1063
1382 1063
1383 1063
1384 1063
1381 1064
1382 1064
1383 1064
1384 1064
1381 1065
1382 1065
1383 1065
1384 1065
1381 1066
1382 1066
1383 1066
1384 1066
1381 1067
1382 1067
1383 1067
1384 1067
1381 1068
1382 1068
1383 1068
1384 1068
1381 1069
1382 1069
1383 1069
1384 1069
1381 1070
1382 1070
1383 1070
1384 1070
1381 1071
1382 1071
1383 1071
1384 1071
1381 1072
1382 1072
1383 1072
1384 1072
1381 1073
1382 1073
1383 1073
1384 1073
1381 1074
1382 1074
1383 1074
1384 1074
1381 1075
1382 1075
1383 1075
1384 1075
1381 1076
1382 1076
1383 1076
1384 1076
1381 1077
1382 1077
1383 1077
1384 1077
1381 1078
1382 1078
1383 1078
1384 1078
1381 1079
1382 1079
1383 1079
1384 1079
1381 1080
1382 1080
1383 1080
1384 1080
1381 1081
1382 1081
1383 1081
1384 1081
1381 1082
1382 1082
1383 1082
1384 1082
1381 1083
1382 1083
1383 1083
1384 1083
1381 1084
1382 1084
1383 1084
1384 1084
1381 1085
1382 1085
1383 1085
1384 1085
1381 1086
1382 1086
1383 1086
1384 1086
1479 1091
1480 1091
1481 1091
1482 1091
1479 1092
1480 1092
1481 1092
1482 1092
1479 1093
1480 1093
1481 1093
1482 1093
1479 1094
1480 1094
1481 1094
1482 1094
1479 1095
1480 1095
1481 1095
1482 1095
1479 1096
1480 1096
1481 1096
1482 1096
1479 1097
1480 1097
1481 1097
1482 1097
1479 1098
1480 1098
1481 1098
1482 1098
1479 1099
1480 1099
1481 1099
1482 1099
1479 1100
1480 1100
1481 1100
1482 1100
1479 1101
1480 1101
1481 1101
1482 1101
1479 1102
1480 1102
1481 1102
1482 1102
1479 1103
1480 1103
1481 1103
1482 1103
1479 1104
1480 1104
1481 1104
1482 1104
1479 1105
1480 1105
1481 1105
1482 1105
1479 1106
1480 1106
1481 1106
1482 1106
1479 1107
1480 1107
1481 1107
1482 1107
1479 1108
1480 1108
1481 1108
1482 1108
1479 1109
1480 1109
1481 1109
1482 1109
1479 1110
1480 1110
1481 1110
1482 1110
1479 1111
1480 1111
1481 1111
1482 1111
1479 1112
1480 1112
1481 1112
1482 1112
1479 1113
1480 1113
1481 1113
1482 1113
1479 1114
1480 1114
1481 1114
1482 1114
1479 1115
1480 1115
1481 1115
1482 1115
1479 1116
1480 1116
1481 1116
1482 1116
1479 1117
1480 1117
1481 1117
1482 1117
1479 1118
1480 1118
1481 1118
1482 1118
1479 1119
1480 1119
1481 1119
1482 1119
1479 1120
1480 1120
1481 1120
1482 1120
1479 1121
1480 1121
1481 1121
1482 1121
1479 1122
1480 1122
1481 1122
1482 1122
1479 1123
1480 1123
1481 1123
1482 1123
1479 1124
1480 1124
1481 1124
1482 1124
1479 1125
1480 1125
1481 1125
1482 1125
1479 1126
1480 1126
1481 1126
1482 1126
1479 1127
1480 1127
1481 1127
1482 1127
1479 1128
1480 1128
1481 1128
1482 1128
1479 1129
1480 1129
1481 1129
1482 1129
1479 1130
1480 1130
1481 1130
1482 1130
1479 1131
1480 1131
1481 1131
1482 1131
1479 1132
1480 1132
1481 1132
1482 1132
1479 1133
1480 1133
1481 1133
1482 1133
1479 1134
1480 1134
1481 1134
1482 1134
1479 1135
1480 1135
1481 1135
1482 1135
1479 1136
1480 1136
1481 1136
1482 1136
1479 1137
1480 1137
1481 1137
1482 1137
1479 1138
1480 1138
1481 1138
1482 1138
1479 1139
1480 1139
1481 1139
1482 1139
1479 1140
1480 1140
1481 1140
1482 1140
1479 1141
1480 1141
1481 1141
1482 1141
1479 1142
1480 1142
1481 1142
1482 1142
1479 1143
1480 1143
1481 1143
1482 1143
1479 1144
1480 1144
1481 1144
1482 1144
1479 1145
1480 1145
1481 1145
1482 1145
1479 1146
1480 1146
1481 1146
1482 1146
1479 1147
1480 1147
1481 1147
1482 1147
1479 1148
1480 1148
1481 1148
1482 1148
1479 1149
1480 1149
1481 1149
1482 1149
1479 1150
1480 1150
1481 1150
1482 1150
1479 1151
1480 1151
1481 1151
1482 1151
1479 1152
1480 1152
1481 1152
1482 1152
1479 1153
1480 1153
1481 1153
1482 1153
1479 1154
1480 1154
1481 1154
1482 1154
1479 1155
1480 1155
1481 1155
1482 1155
1479 1156
1480 1156
1481 1156
1482 1156
1479 1157
1480 1157
1481 1157
1482 1157
1479 1158
1480 1158
1481 1158
1482 1158
1577 1163
1578 1163
1579 1163
1580 1163
1577 1164
1578 1164
1579 1164
1580 1164
1577 1165
1578 1165
1579 1165
1580 1165
1577 1166
1578 1166
1579 1166
1580 1166
1577 1167
1578 1167
1579 1167
1580 1167
1577 1168
1578 1168
1579 1168
1580 1168
1577 1169
1578 1169
1579 1169
1580 1169
1577 1170
1578 1170
1579 1170
1580 1170
1577 1171
1578 1171
1579 1171
1580 1171
1577 1172
1578 1172
1579 1172
1580 1172
1577 1173
1578 1173
1579 1173
1580 1173
1577 1174
1578 1174
1579 1174
1580 1174
1577 1175
1578 1175
1579 1175
1580 1175
1577 1176
1578 1176
1579 1176
1580 1176
1577 1177
1578 1177
1579 1177
1580 1177
1577 1178
1578 1178
1579 1178
1580 1178
1577 1179
1578 1179
1579 1179
1580 1179
1577 1180
1578 1180
1579 1180
1580 1180
1577 1181
1578 1181
1579 1181
1580 1181
1577 1182
1578 1182
1579 1182
1580 1182
1577 1183
1578 1183
1579 1183
1580 1183
1577 1184
1578 1184
1579 1184
1580 1184
1577 1185
1578 1185
1579 1185
1580 1185
1577 1186
1578 1186
1579 1186
1580 1186
1577 1187
1578 1187
1579 1187
1580 1187
1577 1188
1578 1188
1579 1188
1580 1188
1577 1189
1578 1189
1579 1189
1580 1189
1577 1190
1578 1190
1579 1190
1580 1190
1577 1191
1578 1191
1579 1191
1580 1191
1577 1192
1578 1192
1579 1192
1580 1192
1577 1193
1578 1193
1579 1193
1580 1193
1577 1194
1578 1194
1579 1194
1580 1194
1577 1195
1578 1195
1579 1195
1580 1195
1577 1196
1578 1196
1579 1196
1580 1196
1577 1197
1578 1197
1579 1197
1580 1197
1577 1198
1578 1198
1579 1198
1580 1198
1577 1199
1578 1199
1579 1199
1580 1199
1577 1200
1578 1200
1579 1200
1580 1200
1577 1201
1578 1201
1579 1201
1580 1201
1577 1202
1578 1202
1579 1202
1580 1202
1577 1203
1578 1203
1579 1203
1580 1203
1577 1204
1578 1204
1579 1204
1580 1204
1577 1205
1578 1205
1579 1205
1580 1205
1577 1206
1578 1206
1579 1206
1580 1206
1577 1207
1578 1207
1579 1207
1580 1207
1577 1208
1578 1208
1579 1208
1580 1208
1577 1209
1578 1209
1579 1209
1580 1209
1577 1210
1578 1210
1579 1210
1580 1210
1577 1211
1578 1211
1579 1211
1580 1211
1577 1212
1578 1212
1579 1212
1580 1212
1577 1213
1578 1213
1579 1213
1580 1213
1577 1214
1578 1214
1579 1214
1580 1214
1577 1215
1578 1215
1579 1215
1580 1215
1577 1216
1578 1216
1579 1216
1580 1216
1577 1217
1578 1217
1579 1217
1580 1217
1577 1218
1578 1218
1579 1218
1580 1218
1577 1219
1578 1219
1579 1219
1580 1219
1577 1220
1578 1220
1579 1220
1580 1220
1577 1221
1578 1221
1579 1221
1580 1221
1577 1222
1578 1222
1579 1222
1580 1222
1577 1223
1578 1223
1579 1223
1580 1223
1577 1224
1578 1224
1579 1224
1580 1224
1577 1225
1578 1225
1579 1225
1580 1225
1577 1226
1578 1226
1579 1226
1580 1226
1577 1227
1578 1227
1579 1227
1580 1227
1577 1228
1578 1228
1579 1228
1580 1228
1577 1229
1578 1229
1579 1229
1580 1229
1577 1230
1578 1230
1579 1230
1580 1230
1675 1235
1676 1235
1677 1235
1678 1235
1675 1236
1676 1236
1677 1236
1678 1236
1675 1237
1676 1237
1677 1237
1678 1237
1675 1238
1676 1238
1677 1238
1678 1238
1675 1239
1676 1239
1677 1239
1678 1239
1675 1240
1676 1240
1677 1240
1678 1240
1675 1241
1676 1241
1677 1241
1678 1241
1675 1242
1676 1242
1677 1242
1678 1242
1675 1243
1676 1243
1677 1243
1678 1243
1675 1244
1676 1244
1677 1244
1678 1244
1675 1245
1676 1245
1677 1245
1678 1245
1675 1246
1676 1246
1677 1246
1678 1246
1675 1247
1676 1247
1677 1247
1678 1247
1675 1248
1676 1248
1677 1248
1678 1248
1675 1249
1676 1249
1677 1249
1678 1249
1675 1250
1676 1250
1677 1250
1678 1250
1675 1251
1676 1251
1677 1251
1678 1251
1675 1252
1676 1252
1677 1252
1678 1252
1675 1253
1676 1253
1677 1253
1678 1253
1675 1254
1676 1254
1677 1254
1678 1254
1675 1255
1676 1255
1677 1255
1678 1255
1675 1256
1676 1256
1677 1256
1678 1256
1675 1257
1676 1257
1677 1257
1678 1257
1675 1258
1676 1258
1677 1258
1678 1258
1675 1259
1676 1259
1677 1259
1678 1259
1675 1260
1676 1260
1677 1260
1678 1260
1675 1261
1676 1261
1677 1261
1678 1261
1675 1262
1676 1262
1677 1262
1678 1262
1675 1263
1676 1263
1677 1263
1678 1263
1675 1264
1676 1264
1677 1264
1678 1264
1675 1265
1676 1265
1677 1265
1678 1265
1675 1266
1676 1266
1677 1266
1678 1266
1675 1267
1676 1267
1677 1267
1678 1267
1675 1268
1676 1268
1677 1268
1678 1268
1675 1269
1676 1269
1677 1269
1678 1269
1675 1270
1676 1270
1677 1270
1678 1270
1675 1271
1676 1271
1677 1271
1678 1271
1675 1272
1676 1272
1677 1272
1678 1272
1675 1273
1676 1273
1677 1273
1678 1273
1675 1274
1676 1274
1677 1274
1678 1274
1675 1275
1676 1275
1677 1275
1678 1275
1675 1276
1676 1276
1677 1276
1678 1276
1675 1277
1676 1277
1677 1277
1678 1277
1675 1278
1676 1278
1677 1278
1678 1278
1675 1279
1676 1279
1677 1279
1678 1279
1675 1280
1676 1280
1677 1280
1678 1280
1675 1281
1676 1281
1677 1281
1678 1281
1675 1282
1676 1282
1677 1282
1678 1282
1675 1283
1676 1283
1677 1283
1678 1283
1675 1284
1676 1284
1677 1284
1678 1284
1675 1285
1676 1285
1677 1285
1678 1285
1675 1286
1676 1286
1677 1286
1678 1286
1675 1287
1676 1287
1677 1287
1678 1287
1675 1288
1676 1288
1677 1288
1678 1288
1675 1289
1676 1289
1677 1289
1678 1289
1675 1290
1676 1290
1677 1290
1678 1290
1675 1291
1676 1291
1677 1291
1678 1291
1675 1292
1676 1292
1677 1292
1678 1292
1675 1293
1676 1293
1677 1293
1678 1293
1675 1294
1676 1294
1677 1294
1678 1294
1675 1295
1676 1295
1677 1295
1678 1295
1675 1296
1676 1296
1677 1296
1678 1296
1675 1297
1676 1297
1677 1297
1678 1297
1675 1298
1676 1298
1677 1298
1678 1298
1675 1299
1676 1299
1677 1299
1678 1299
1675 1300
1676 1300
1677 1300
1678 1300
1675 1301
1676 1301
1677 1301
1678 1301
1675 1302
1676 1302
1677 1302
1678 1302
1773 1307
1774 1307
1775 1307
1776 1307
1773 1308
1774 1308
1775 1308
1776 1308
1773 1309
1774 1309
1775 1309
1776 1309
1773 1310
1774 1310
1775 1310
1776 1310
1773 1311
1774 1311
1775 1311
1776 1311
1773 1312
1774 1312
1775 1312
1776 1312
1773 1313
1774 1313
1775 1313
1776 1313
1773 1314
1774 1314
1775 1314
1776 1314
1773 1315
1774 1315
1775 1315
1776 1315
1773 1316
1774 1316
1775 1316
1776 1316
1773 1317
1774 1317
1775 1317
1776 1317
1773 1318
1774 1318
1775 1318
1776 1318
1773 1319
1774 1319
1775 1319
1776 1319
1773 1320
1774 1320
1775 1320
1776 1320
1773 1321
1774 1321
1775 1321
1776 1321
1773 1322
1774 1322
1775 1322
1776 1322
1773 1323
1774 1323
1775 1323
1776 1323
1773 1324
1774 1324
1775 1324
1776 1324
1773 1325
1774 1325
1775 1325
1776 1325
1773 1326
1774 1326
1775 1326
1776 1326
1773 1327
1774 1327
1775 1327
1776 1327
1773 1328
1774 1328
1775 1328
1776 1328
1773 1329
1774 1329
1775 1329
1776 1329
1773 1330
1774 1330
1775 1330
1776 1330
1773 1331
1774 1331
1775 1331
1776 1331
1773 1332
1774 1332
1775 1332
1776 1332
1773 1333
1774 1333
1775 1333
1776 1333
1773 1334
1774 1334
1775 1334
1776 1334
1773 1335
1774 1335
1775 1335
1776 1335
1773 1336
1774 1336
1775 1336
1776 1336
1773 1337
1774 1337
1775 1337
1776 1337
1773 1338
1774 1338
1775 1338
1776 1338
1773 1339
1774 1339
1775 1339
1776 1339
1773 1340
1774 1340
1775 1340
1776 1340
1773 1341
1774 1341
1775 1341
1776 1341
1773 1342
1774 1342
1775 1342
1776 1342
1773 1343
1774 1343
1775 1343
1776 1343
1773 1344
1774 1344
1775 1344
1776 1344
1773 1345
1774 1345
1775 1345
1776 1345
1773 1346
1774 1346
1775 1346
1776 1346
1773 1347
1774 1347
1775 1347
1776 1347
1773 1348
1774 1348
1775 1348
1776 1348
1773 1349
1774 1349
1775 1349
1776 1349
1773 1350
1774 1350
1775 1350
1776 1350
1773 1351
1774 1351
1775 1351
1776 1351
1773 1352
1774 1352
1775 1352
1776 1352
1773 1353
1774 1353
1775 1353
1776 1353
1773 1354
1774 1354
1775 1354
1776 1354
1773 1355
1774 1355
1775 1355
1776 1355
1773 1356
1774 1356
1775 1356
1776 1356
1773 1357
1774 1357
1775 1357
1776 1357
1773 1358
1774 1358
1775 1358
1776 1358
1773 1359
1774 1359
1775 1359
1776 1359
1773 1360
1774 1360
1775 1360
1776 1360
1773 1361
1774 1361
1775 1361
1776 1361
1773 1362
1774 1362
1775 1362
1776 1362
1773 1363
1774 1363
1775 1363
1776 1363
1773 1364
1774 1364
1775 1364
1776 1364
1773 1365
1774 1365
1775 1365
1776 1365
1773 1366
1774 1366
1775 1366
1776 1366
1773 1367
1774 1367
1775 1367
1776 1367
1773 1368
1774 1368
1775 1368
1776 1368
1773 1369
1774 1369
1775 1369
1776 1369
1773 1370
1774 1370
1775 1370
1776 1370
1773 1371
1774 1371
1775 1371
1776 1371
1773 1372
1774 1372
1775 1372
1776 1372
1773 1373
1774 1373
1775 1373
1776 1373
1773 1374
1774 1374
1775 1374
1776 1374
1871 1379
1872 1379
1873 1379
1874 1379
1871 1380
1872 1380
1873 1380
1874 1380
1879 1385
1880 1385
1881 1385
1882 1385
1879 1386
1880 1386
1881 1386
1882 1386
1887 1391
1888 1391
1889 1391
1890 1391
1887 1392
1888 1392
1889 1392
1890 1392
1895 1397
1896 1397
1897 1397
1898 1397
1895 1398
1896 1398
1897 1398
1898 1398
1903 1403
1904 1403
1905 1403
1906 1403
1903 1404
1904 1404
1905 1404
1906 1404
1911 1409
1912 1409
1913 1409
1914 1409
1911 1410
1912 1410
1913 1410
1914 1410
1919 1415
1920 1415
1921 1415
1922 1415
1919 1416
1920 1416
1921 1416
1922 1416
1927 1421
1928 1421
1929 1421
1930 1421
1927 1422
1928 1422
1929 1422
1930 1422
1935 1427
1936 1427
1937 1427
1938 1427
1935 1428
1936 1428
1937 1428
1938 1428
1943 1433
1944 1433
1945 1433
1946 1433
1943 1434
1944 1434
1945 1434
1946 1434
