%%MatrixMarket matrix coordinate pattern general
696 184 120
1 7
2 8
3 9
4 10
9 13
10 14
11 15
12 16
41 19
42 20
43 21
44 22
73 25
74 26
75 27
76 28
105 31
106 32
107 33
108 34
137 37
138 38
139 39
140 40
169 43
170 44
171 45
172 46
201 49
202 50
203 51
204 52
233 55
234 56
235 57
236 58
265 61
266 62
267 63
268 64
297 67
298 68
299 69
300 70
329 73
330 74
331 75
332 76
361 79
362 80
363 81
364 82
393 85
394 86
395 87
396 88
425 91
426 92
427 93
428 94
457 97
458 98
459 99
460 100
489 103
490 104
491 105
492 106
521 109
522 110
523 111
524 112
553 115
554 116
555 117
556 118
585 121
586 122
587 123
588 124
617 127
618 128
619 129
620 130
625 133
626 134
627 135
628 136
633 139
634 140
635 141
636 142
641 145
642 146
643 147
644 148
649 151
650 152
651 153
652 154
657 157
658 158
659 159
660 160
665 163
666 164
667 165
668 166
673 169
674 170
675 171
676 172
681 175
682 176
683 177
684 178
689 181
690 182
691 183
692 184
