%%MatrixMarket matrix coordinate pattern general
<<<<<<< HEAD
<<<<<<< HEAD
544 184 848
=======
620 184 1000
>>>>>>> 8a2b9247b2e6380456bda9c9def69962b7ec5212
=======
696 184 1152
>>>>>>> d246ddfa18f604b9e31ca05784e73341cef65ed2
5 5
6 5
7 5
8 5
5 6
6 6
7 6
8 6
13 11
14 11
15 11
16 11
17 11
18 11
19 11
20 11
21 11
22 11
23 11
24 11
25 11
26 11
27 11
28 11
29 11
30 11
31 11
32 11
<<<<<<< HEAD
=======
33 11
34 11
35 11
36 11
<<<<<<< HEAD
>>>>>>> 8a2b9247b2e6380456bda9c9def69962b7ec5212
=======
37 11
38 11
39 11
40 11
>>>>>>> d246ddfa18f604b9e31ca05784e73341cef65ed2
13 12
14 12
15 12
16 12
17 12
18 12
19 12
20 12
21 12
22 12
23 12
24 12
25 12
26 12
27 12
28 12
29 12
30 12
31 12
32 12
<<<<<<< HEAD
37 17
38 17
39 17
40 17
=======
33 12
34 12
35 12
36 12
<<<<<<< HEAD
>>>>>>> 8a2b9247b2e6380456bda9c9def69962b7ec5212
41 17
42 17
43 17
44 17
=======
37 12
38 12
39 12
40 12
>>>>>>> d246ddfa18f604b9e31ca05784e73341cef65ed2
45 17
46 17
47 17
48 17
49 17
50 17
51 17
52 17
53 17
54 17
55 17
56 17
<<<<<<< HEAD
37 18
38 18
39 18
40 18
=======
57 17
58 17
59 17
60 17
61 17
62 17
63 17
64 17
<<<<<<< HEAD
>>>>>>> 8a2b9247b2e6380456bda9c9def69962b7ec5212
41 18
42 18
43 18
44 18
=======
65 17
66 17
67 17
68 17
69 17
70 17
71 17
72 17
>>>>>>> d246ddfa18f604b9e31ca05784e73341cef65ed2
45 18
46 18
47 18
48 18
49 18
50 18
51 18
52 18
53 18
54 18
55 18
56 18
<<<<<<< HEAD
61 23
62 23
63 23
64 23
65 23
66 23
67 23
68 23
=======
57 18
58 18
59 18
60 18
61 18
62 18
63 18
64 18
<<<<<<< HEAD
>>>>>>> 8a2b9247b2e6380456bda9c9def69962b7ec5212
69 23
70 23
71 23
72 23
73 23
74 23
75 23
76 23
=======
65 18
66 18
67 18
68 18
69 18
70 18
71 18
72 18
>>>>>>> d246ddfa18f604b9e31ca05784e73341cef65ed2
77 23
78 23
79 23
80 23
<<<<<<< HEAD
61 24
62 24
63 24
64 24
65 24
66 24
67 24
68 24
=======
81 23
82 23
83 23
84 23
85 23
86 23
87 23
88 23
89 23
90 23
91 23
92 23
<<<<<<< HEAD
>>>>>>> 8a2b9247b2e6380456bda9c9def69962b7ec5212
69 24
70 24
71 24
72 24
73 24
74 24
75 24
76 24
=======
93 23
94 23
95 23
96 23
97 23
98 23
99 23
100 23
101 23
102 23
103 23
104 23
>>>>>>> d246ddfa18f604b9e31ca05784e73341cef65ed2
77 24
78 24
79 24
80 24
<<<<<<< HEAD
85 29
86 29
87 29
88 29
89 29
90 29
91 29
92 29
93 29
94 29
95 29
96 29
=======
81 24
82 24
83 24
84 24
85 24
86 24
87 24
88 24
89 24
90 24
91 24
92 24
<<<<<<< HEAD
>>>>>>> 8a2b9247b2e6380456bda9c9def69962b7ec5212
97 29
98 29
99 29
100 29
101 29
102 29
103 29
104 29
<<<<<<< HEAD
85 30
86 30
87 30
88 30
89 30
90 30
91 30
92 30
93 30
94 30
95 30
96 30
=======
105 29
106 29
107 29
108 29
=======
93 24
94 24
95 24
96 24
97 24
98 24
99 24
100 24
101 24
102 24
103 24
104 24
>>>>>>> d246ddfa18f604b9e31ca05784e73341cef65ed2
109 29
110 29
111 29
112 29
113 29
114 29
115 29
116 29
117 29
118 29
119 29
120 29
<<<<<<< HEAD
>>>>>>> 8a2b9247b2e6380456bda9c9def69962b7ec5212
97 30
98 30
99 30
100 30
101 30
102 30
103 30
104 30
<<<<<<< HEAD
109 35
110 35
111 35
112 35
113 35
114 35
115 35
116 35
117 35
118 35
119 35
120 35
121 35
122 35
123 35
124 35
=======
105 30
106 30
107 30
108 30
=======
121 29
122 29
123 29
124 29
125 29
126 29
127 29
128 29
129 29
130 29
131 29
132 29
133 29
134 29
135 29
136 29
>>>>>>> d246ddfa18f604b9e31ca05784e73341cef65ed2
109 30
110 30
111 30
112 30
113 30
114 30
115 30
116 30
117 30
118 30
119 30
120 30
<<<<<<< HEAD
>>>>>>> 8a2b9247b2e6380456bda9c9def69962b7ec5212
125 35
126 35
127 35
128 35
<<<<<<< HEAD
109 36
110 36
111 36
112 36
113 36
114 36
115 36
116 36
117 36
118 36
119 36
120 36
121 36
122 36
123 36
124 36
=======
129 35
130 35
131 35
132 35
133 35
134 35
135 35
136 35
137 35
138 35
139 35
140 35
=======
121 30
122 30
123 30
124 30
125 30
126 30
127 30
128 30
129 30
130 30
131 30
132 30
133 30
134 30
135 30
136 30
>>>>>>> d246ddfa18f604b9e31ca05784e73341cef65ed2
141 35
142 35
143 35
144 35
145 35
146 35
147 35
148 35
<<<<<<< HEAD
>>>>>>> 8a2b9247b2e6380456bda9c9def69962b7ec5212
125 36
126 36
127 36
128 36
<<<<<<< HEAD
133 41
134 41
135 41
136 41
137 41
138 41
139 41
140 41
141 41
142 41
143 41
144 41
145 41
146 41
147 41
148 41
149 41
150 41
151 41
152 41
133 42
134 42
135 42
136 42
137 42
138 42
139 42
140 42
141 42
142 42
143 42
144 42
145 42
146 42
147 42
148 42
149 42
150 42
151 42
152 42
157 47
158 47
159 47
160 47
161 47
162 47
163 47
164 47
165 47
166 47
167 47
168 47
169 47
170 47
171 47
172 47
173 47
174 47
175 47
176 47
157 48
158 48
159 48
160 48
161 48
162 48
163 48
164 48
165 48
166 48
167 48
168 48
169 48
170 48
171 48
172 48
173 48
174 48
175 48
176 48
181 53
182 53
183 53
184 53
185 53
186 53
187 53
188 53
189 53
190 53
191 53
192 53
193 53
194 53
195 53
196 53
197 53
198 53
199 53
200 53
181 54
182 54
183 54
184 54
185 54
186 54
187 54
188 54
189 54
190 54
191 54
192 54
193 54
194 54
195 54
196 54
197 54
198 54
199 54
200 54
205 59
206 59
207 59
208 59
209 59
210 59
211 59
212 59
213 59
214 59
215 59
216 59
217 59
218 59
219 59
220 59
221 59
222 59
223 59
224 59
205 60
206 60
207 60
208 60
209 60
210 60
211 60
212 60
213 60
214 60
215 60
216 60
217 60
218 60
219 60
220 60
221 60
222 60
223 60
224 60
229 65
230 65
231 65
232 65
233 65
234 65
235 65
236 65
237 65
238 65
239 65
240 65
241 65
242 65
243 65
244 65
245 65
246 65
247 65
248 65
229 66
230 66
231 66
232 66
233 66
234 66
235 66
236 66
237 66
238 66
239 66
240 66
241 66
242 66
243 66
244 66
245 66
246 66
247 66
248 66
253 71
254 71
255 71
256 71
257 71
258 71
259 71
260 71
261 71
262 71
263 71
264 71
265 71
266 71
267 71
268 71
269 71
270 71
271 71
272 71
253 72
254 72
255 72
256 72
257 72
258 72
259 72
260 72
261 72
262 72
263 72
264 72
265 72
266 72
267 72
268 72
269 72
270 72
271 72
272 72
277 77
278 77
279 77
280 77
281 77
282 77
283 77
284 77
285 77
286 77
287 77
288 77
289 77
290 77
291 77
292 77
293 77
294 77
295 77
296 77
277 78
278 78
279 78
280 78
281 78
282 78
283 78
284 78
285 78
286 78
287 78
288 78
289 78
290 78
291 78
292 78
293 78
294 78
295 78
296 78
301 83
302 83
303 83
304 83
305 83
306 83
307 83
308 83
309 83
310 83
311 83
312 83
313 83
314 83
315 83
316 83
317 83
318 83
319 83
320 83
301 84
302 84
303 84
304 84
305 84
306 84
307 84
308 84
309 84
310 84
311 84
312 84
313 84
314 84
315 84
316 84
317 84
318 84
319 84
320 84
325 89
326 89
327 89
328 89
329 89
330 89
331 89
332 89
333 89
334 89
335 89
336 89
337 89
338 89
339 89
340 89
341 89
342 89
343 89
344 89
325 90
326 90
327 90
328 90
329 90
330 90
331 90
332 90
333 90
334 90
335 90
336 90
337 90
338 90
339 90
340 90
341 90
342 90
343 90
344 90
349 95
350 95
351 95
352 95
353 95
354 95
355 95
356 95
357 95
358 95
359 95
360 95
361 95
362 95
363 95
364 95
365 95
366 95
367 95
368 95
349 96
350 96
351 96
352 96
353 96
354 96
355 96
356 96
357 96
358 96
359 96
360 96
361 96
362 96
363 96
364 96
365 96
366 96
367 96
368 96
373 101
374 101
375 101
376 101
377 101
378 101
379 101
380 101
381 101
382 101
383 101
384 101
385 101
386 101
387 101
388 101
389 101
390 101
391 101
392 101
373 102
374 102
375 102
376 102
377 102
378 102
379 102
380 102
381 102
382 102
383 102
384 102
385 102
386 102
387 102
388 102
389 102
390 102
391 102
392 102
397 107
398 107
399 107
400 107
401 107
402 107
403 107
404 107
405 107
406 107
407 107
408 107
409 107
410 107
411 107
412 107
413 107
414 107
415 107
416 107
397 108
398 108
399 108
400 108
401 108
402 108
403 108
404 108
405 108
406 108
407 108
408 108
409 108
410 108
411 108
412 108
413 108
414 108
415 108
416 108
421 113
422 113
423 113
424 113
425 113
426 113
427 113
428 113
429 113
430 113
431 113
432 113
433 113
434 113
435 113
436 113
437 113
438 113
439 113
440 113
421 114
422 114
423 114
424 114
425 114
426 114
427 114
428 114
429 114
430 114
431 114
432 114
433 114
434 114
435 114
436 114
437 114
438 114
439 114
440 114
445 119
446 119
447 119
448 119
449 119
450 119
451 119
452 119
453 119
454 119
455 119
456 119
457 119
458 119
459 119
460 119
461 119
462 119
463 119
464 119
445 120
446 120
447 120
448 120
449 120
450 120
451 120
452 120
453 120
454 120
455 120
456 120
457 120
458 120
459 120
460 120
461 120
462 120
463 120
464 120
469 125
470 125
471 125
472 125
469 126
470 126
471 126
472 126
477 131
478 131
479 131
480 131
477 132
478 132
479 132
480 132
485 137
486 137
487 137
488 137
485 138
486 138
487 138
488 138
493 143
494 143
495 143
496 143
493 144
494 144
495 144
496 144
501 149
502 149
503 149
504 149
501 150
502 150
503 150
504 150
509 155
510 155
511 155
512 155
509 156
510 156
511 156
512 156
517 161
518 161
519 161
520 161
517 162
518 162
519 162
520 162
525 167
526 167
527 167
528 167
525 168
526 168
527 168
528 168
533 173
534 173
535 173
536 173
533 174
534 174
535 174
536 174
541 179
542 179
543 179
544 179
541 180
542 180
543 180
544 180
=======
129 36
130 36
131 36
132 36
133 36
134 36
135 36
136 36
137 36
138 36
139 36
140 36
=======
149 35
150 35
151 35
152 35
153 35
154 35
155 35
156 35
157 35
158 35
159 35
160 35
161 35
162 35
163 35
164 35
165 35
166 35
167 35
168 35
>>>>>>> d246ddfa18f604b9e31ca05784e73341cef65ed2
141 36
142 36
143 36
144 36
145 36
146 36
147 36
148 36
149 36
150 36
151 36
152 36
153 36
154 36
155 36
156 36
157 36
158 36
159 36
160 36
161 36
162 36
163 36
164 36
165 36
166 36
167 36
168 36
173 41
174 41
175 41
176 41
177 41
178 41
179 41
180 41
181 41
182 41
183 41
184 41
185 41
186 41
187 41
188 41
189 41
190 41
191 41
192 41
193 41
194 41
195 41
196 41
197 41
198 41
199 41
200 41
173 42
174 42
175 42
176 42
<<<<<<< HEAD
181 47
182 47
183 47
184 47
185 47
186 47
187 47
188 47
189 47
190 47
191 47
192 47
193 47
194 47
195 47
196 47
197 47
198 47
199 47
200 47
201 47
202 47
203 47
204 47
181 48
182 48
183 48
184 48
185 48
186 48
187 48
188 48
189 48
190 48
191 48
192 48
193 48
194 48
195 48
196 48
197 48
198 48
199 48
200 48
201 48
202 48
203 48
204 48
209 53
210 53
211 53
212 53
213 53
214 53
215 53
216 53
217 53
218 53
219 53
220 53
221 53
222 53
223 53
224 53
225 53
226 53
227 53
228 53
229 53
230 53
231 53
232 53
209 54
210 54
211 54
212 54
213 54
214 54
215 54
216 54
217 54
218 54
219 54
220 54
221 54
222 54
223 54
224 54
225 54
226 54
227 54
228 54
229 54
230 54
231 54
232 54
237 59
238 59
239 59
240 59
241 59
242 59
243 59
244 59
245 59
246 59
247 59
248 59
249 59
250 59
251 59
252 59
253 59
254 59
255 59
256 59
257 59
258 59
259 59
260 59
237 60
238 60
239 60
240 60
241 60
242 60
243 60
244 60
245 60
246 60
247 60
248 60
249 60
250 60
251 60
252 60
253 60
254 60
255 60
256 60
257 60
258 60
259 60
260 60
265 65
266 65
267 65
268 65
269 65
270 65
271 65
272 65
273 65
274 65
275 65
276 65
277 65
278 65
279 65
280 65
281 65
282 65
283 65
284 65
285 65
286 65
287 65
288 65
265 66
266 66
267 66
268 66
269 66
270 66
271 66
272 66
273 66
274 66
275 66
276 66
277 66
278 66
279 66
280 66
281 66
282 66
283 66
284 66
285 66
286 66
287 66
288 66
293 71
294 71
295 71
296 71
297 71
298 71
299 71
300 71
301 71
302 71
303 71
304 71
305 71
306 71
307 71
308 71
309 71
310 71
311 71
312 71
313 71
314 71
315 71
316 71
293 72
294 72
295 72
296 72
297 72
298 72
299 72
300 72
301 72
302 72
303 72
304 72
305 72
306 72
307 72
308 72
309 72
310 72
311 72
312 72
313 72
314 72
315 72
316 72
321 77
322 77
323 77
324 77
325 77
326 77
327 77
328 77
329 77
330 77
331 77
332 77
333 77
334 77
335 77
336 77
337 77
338 77
339 77
340 77
341 77
342 77
343 77
344 77
321 78
322 78
323 78
324 78
325 78
326 78
327 78
328 78
329 78
330 78
331 78
332 78
333 78
334 78
335 78
336 78
337 78
338 78
339 78
340 78
341 78
342 78
343 78
344 78
349 83
350 83
351 83
352 83
353 83
354 83
355 83
356 83
357 83
358 83
359 83
360 83
361 83
362 83
363 83
364 83
365 83
366 83
367 83
368 83
369 83
370 83
371 83
372 83
349 84
350 84
351 84
352 84
353 84
354 84
355 84
356 84
357 84
358 84
359 84
360 84
361 84
362 84
363 84
364 84
365 84
366 84
367 84
368 84
369 84
370 84
371 84
372 84
377 89
378 89
379 89
380 89
381 89
382 89
383 89
384 89
385 89
386 89
387 89
388 89
389 89
390 89
391 89
392 89
393 89
394 89
395 89
396 89
397 89
398 89
399 89
400 89
377 90
378 90
379 90
380 90
381 90
382 90
383 90
384 90
385 90
386 90
387 90
388 90
389 90
390 90
391 90
392 90
393 90
394 90
395 90
396 90
397 90
398 90
399 90
400 90
405 95
406 95
407 95
408 95
409 95
410 95
411 95
412 95
413 95
414 95
415 95
416 95
417 95
418 95
419 95
420 95
421 95
422 95
423 95
424 95
425 95
426 95
427 95
428 95
405 96
406 96
407 96
408 96
409 96
410 96
411 96
412 96
413 96
414 96
415 96
416 96
417 96
418 96
419 96
420 96
421 96
422 96
423 96
424 96
425 96
426 96
427 96
428 96
433 101
434 101
435 101
436 101
437 101
438 101
439 101
440 101
441 101
442 101
443 101
444 101
445 101
446 101
447 101
448 101
449 101
450 101
451 101
452 101
453 101
454 101
455 101
456 101
433 102
434 102
435 102
436 102
437 102
438 102
439 102
440 102
441 102
442 102
443 102
444 102
445 102
446 102
447 102
448 102
449 102
450 102
451 102
452 102
453 102
454 102
455 102
456 102
461 107
462 107
463 107
464 107
465 107
466 107
467 107
468 107
469 107
470 107
471 107
472 107
473 107
474 107
475 107
476 107
477 107
478 107
479 107
480 107
481 107
482 107
483 107
484 107
461 108
462 108
463 108
464 108
465 108
466 108
467 108
468 108
469 108
470 108
471 108
472 108
473 108
474 108
475 108
476 108
477 108
478 108
479 108
480 108
481 108
482 108
483 108
484 108
489 113
490 113
491 113
492 113
493 113
494 113
495 113
496 113
497 113
498 113
499 113
500 113
501 113
502 113
503 113
504 113
505 113
506 113
507 113
508 113
509 113
510 113
511 113
512 113
489 114
490 114
491 114
492 114
493 114
494 114
495 114
496 114
497 114
498 114
499 114
500 114
501 114
502 114
503 114
504 114
505 114
506 114
507 114
508 114
509 114
510 114
511 114
512 114
517 119
518 119
519 119
520 119
521 119
522 119
523 119
524 119
525 119
526 119
527 119
528 119
529 119
530 119
531 119
532 119
533 119
534 119
535 119
536 119
537 119
538 119
539 119
540 119
517 120
518 120
519 120
520 120
521 120
522 120
523 120
524 120
525 120
526 120
527 120
528 120
529 120
530 120
531 120
532 120
533 120
534 120
535 120
536 120
537 120
538 120
539 120
540 120
545 125
546 125
547 125
548 125
545 126
546 126
547 126
548 126
553 131
554 131
555 131
556 131
553 132
554 132
555 132
556 132
561 137
562 137
563 137
564 137
561 138
562 138
563 138
564 138
569 143
570 143
571 143
572 143
569 144
570 144
571 144
572 144
577 149
578 149
579 149
580 149
577 150
578 150
579 150
580 150
585 155
586 155
587 155
588 155
585 156
586 156
587 156
588 156
593 161
594 161
595 161
596 161
593 162
594 162
595 162
596 162
601 167
602 167
603 167
604 167
601 168
602 168
603 168
604 168
609 173
610 173
611 173
612 173
609 174
610 174
611 174
612 174
617 179
618 179
619 179
620 179
617 180
618 180
619 180
620 180
>>>>>>> 8a2b9247b2e6380456bda9c9def69962b7ec5212
=======
177 42
178 42
179 42
180 42
181 42
182 42
183 42
184 42
185 42
186 42
187 42
188 42
189 42
190 42
191 42
192 42
193 42
194 42
195 42
196 42
197 42
198 42
199 42
200 42
205 47
206 47
207 47
208 47
209 47
210 47
211 47
212 47
213 47
214 47
215 47
216 47
217 47
218 47
219 47
220 47
221 47
222 47
223 47
224 47
225 47
226 47
227 47
228 47
229 47
230 47
231 47
232 47
205 48
206 48
207 48
208 48
209 48
210 48
211 48
212 48
213 48
214 48
215 48
216 48
217 48
218 48
219 48
220 48
221 48
222 48
223 48
224 48
225 48
226 48
227 48
228 48
229 48
230 48
231 48
232 48
237 53
238 53
239 53
240 53
241 53
242 53
243 53
244 53
245 53
246 53
247 53
248 53
249 53
250 53
251 53
252 53
253 53
254 53
255 53
256 53
257 53
258 53
259 53
260 53
261 53
262 53
263 53
264 53
237 54
238 54
239 54
240 54
241 54
242 54
243 54
244 54
245 54
246 54
247 54
248 54
249 54
250 54
251 54
252 54
253 54
254 54
255 54
256 54
257 54
258 54
259 54
260 54
261 54
262 54
263 54
264 54
269 59
270 59
271 59
272 59
273 59
274 59
275 59
276 59
277 59
278 59
279 59
280 59
281 59
282 59
283 59
284 59
285 59
286 59
287 59
288 59
289 59
290 59
291 59
292 59
293 59
294 59
295 59
296 59
269 60
270 60
271 60
272 60
273 60
274 60
275 60
276 60
277 60
278 60
279 60
280 60
281 60
282 60
283 60
284 60
285 60
286 60
287 60
288 60
289 60
290 60
291 60
292 60
293 60
294 60
295 60
296 60
301 65
302 65
303 65
304 65
305 65
306 65
307 65
308 65
309 65
310 65
311 65
312 65
313 65
314 65
315 65
316 65
317 65
318 65
319 65
320 65
321 65
322 65
323 65
324 65
325 65
326 65
327 65
328 65
301 66
302 66
303 66
304 66
305 66
306 66
307 66
308 66
309 66
310 66
311 66
312 66
313 66
314 66
315 66
316 66
317 66
318 66
319 66
320 66
321 66
322 66
323 66
324 66
325 66
326 66
327 66
328 66
333 71
334 71
335 71
336 71
337 71
338 71
339 71
340 71
341 71
342 71
343 71
344 71
345 71
346 71
347 71
348 71
349 71
350 71
351 71
352 71
353 71
354 71
355 71
356 71
357 71
358 71
359 71
360 71
333 72
334 72
335 72
336 72
337 72
338 72
339 72
340 72
341 72
342 72
343 72
344 72
345 72
346 72
347 72
348 72
349 72
350 72
351 72
352 72
353 72
354 72
355 72
356 72
357 72
358 72
359 72
360 72
365 77
366 77
367 77
368 77
369 77
370 77
371 77
372 77
373 77
374 77
375 77
376 77
377 77
378 77
379 77
380 77
381 77
382 77
383 77
384 77
385 77
386 77
387 77
388 77
389 77
390 77
391 77
392 77
365 78
366 78
367 78
368 78
369 78
370 78
371 78
372 78
373 78
374 78
375 78
376 78
377 78
378 78
379 78
380 78
381 78
382 78
383 78
384 78
385 78
386 78
387 78
388 78
389 78
390 78
391 78
392 78
397 83
398 83
399 83
400 83
401 83
402 83
403 83
404 83
405 83
406 83
407 83
408 83
409 83
410 83
411 83
412 83
413 83
414 83
415 83
416 83
417 83
418 83
419 83
420 83
421 83
422 83
423 83
424 83
397 84
398 84
399 84
400 84
401 84
402 84
403 84
404 84
405 84
406 84
407 84
408 84
409 84
410 84
411 84
412 84
413 84
414 84
415 84
416 84
417 84
418 84
419 84
420 84
421 84
422 84
423 84
424 84
429 89
430 89
431 89
432 89
433 89
434 89
435 89
436 89
437 89
438 89
439 89
440 89
441 89
442 89
443 89
444 89
445 89
446 89
447 89
448 89
449 89
450 89
451 89
452 89
453 89
454 89
455 89
456 89
429 90
430 90
431 90
432 90
433 90
434 90
435 90
436 90
437 90
438 90
439 90
440 90
441 90
442 90
443 90
444 90
445 90
446 90
447 90
448 90
449 90
450 90
451 90
452 90
453 90
454 90
455 90
456 90
461 95
462 95
463 95
464 95
465 95
466 95
467 95
468 95
469 95
470 95
471 95
472 95
473 95
474 95
475 95
476 95
477 95
478 95
479 95
480 95
481 95
482 95
483 95
484 95
485 95
486 95
487 95
488 95
461 96
462 96
463 96
464 96
465 96
466 96
467 96
468 96
469 96
470 96
471 96
472 96
473 96
474 96
475 96
476 96
477 96
478 96
479 96
480 96
481 96
482 96
483 96
484 96
485 96
486 96
487 96
488 96
493 101
494 101
495 101
496 101
497 101
498 101
499 101
500 101
501 101
502 101
503 101
504 101
505 101
506 101
507 101
508 101
509 101
510 101
511 101
512 101
513 101
514 101
515 101
516 101
517 101
518 101
519 101
520 101
493 102
494 102
495 102
496 102
497 102
498 102
499 102
500 102
501 102
502 102
503 102
504 102
505 102
506 102
507 102
508 102
509 102
510 102
511 102
512 102
513 102
514 102
515 102
516 102
517 102
518 102
519 102
520 102
525 107
526 107
527 107
528 107
529 107
530 107
531 107
532 107
533 107
534 107
535 107
536 107
537 107
538 107
539 107
540 107
541 107
542 107
543 107
544 107
545 107
546 107
547 107
548 107
549 107
550 107
551 107
552 107
525 108
526 108
527 108
528 108
529 108
530 108
531 108
532 108
533 108
534 108
535 108
536 108
537 108
538 108
539 108
540 108
541 108
542 108
543 108
544 108
545 108
546 108
547 108
548 108
549 108
550 108
551 108
552 108
557 113
558 113
559 113
560 113
561 113
562 113
563 113
564 113
565 113
566 113
567 113
568 113
569 113
570 113
571 113
572 113
573 113
574 113
575 113
576 113
577 113
578 113
579 113
580 113
581 113
582 113
583 113
584 113
557 114
558 114
559 114
560 114
561 114
562 114
563 114
564 114
565 114
566 114
567 114
568 114
569 114
570 114
571 114
572 114
573 114
574 114
575 114
576 114
577 114
578 114
579 114
580 114
581 114
582 114
583 114
584 114
589 119
590 119
591 119
592 119
593 119
594 119
595 119
596 119
597 119
598 119
599 119
600 119
601 119
602 119
603 119
604 119
605 119
606 119
607 119
608 119
609 119
610 119
611 119
612 119
613 119
614 119
615 119
616 119
589 120
590 120
591 120
592 120
593 120
594 120
595 120
596 120
597 120
598 120
599 120
600 120
601 120
602 120
603 120
604 120
605 120
606 120
607 120
608 120
609 120
610 120
611 120
612 120
613 120
614 120
615 120
616 120
621 125
622 125
623 125
624 125
621 126
622 126
623 126
624 126
629 131
630 131
631 131
632 131
629 132
630 132
631 132
632 132
637 137
638 137
639 137
640 137
637 138
638 138
639 138
640 138
645 143
646 143
647 143
648 143
645 144
646 144
647 144
648 144
653 149
654 149
655 149
656 149
653 150
654 150
655 150
656 150
661 155
662 155
663 155
664 155
661 156
662 156
663 156
664 156
669 161
670 161
671 161
672 161
669 162
670 162
671 162
672 162
677 167
678 167
679 167
680 167
677 168
678 168
679 168
680 168
685 173
686 173
687 173
688 173
685 174
686 174
687 174
688 174
693 179
694 179
695 179
696 179
693 180
694 180
695 180
696 180
>>>>>>> d246ddfa18f604b9e31ca05784e73341cef65ed2
