%%MatrixMarket matrix coordinate pattern general
1950 1438 7320
5 1
6 1
7 1
8 1
5 2
6 2
7 2
8 2
5 3
6 3
7 3
8 3
5 4
6 4
7 4
8 4
13 7
14 7
15 7
16 7
17 7
18 7
19 7
20 7
21 7
22 7
23 7
24 7
25 7
26 7
27 7
28 7
29 7
30 7
31 7
32 7
33 7
34 7
35 7
36 7
37 7
38 7
39 7
40 7
41 7
42 7
43 7
44 7
45 7
46 7
47 7
48 7
49 7
50 7
51 7
52 7
53 7
54 7
55 7
56 7
57 7
58 7
59 7
60 7
61 7
62 7
63 7
64 7
65 7
66 7
67 7
68 7
69 7
70 7
71 7
72 7
73 7
74 7
75 7
76 7
77 7
78 7
79 7
80 7
81 7
82 7
83 7
84 7
85 7
86 7
87 7
88 7
89 7
90 7
91 7
92 7
93 7
94 7
95 7
96 7
97 7
98 7
99 7
100 7
101 7
102 7
103 7
104 7
105 7
106 7
13 8
14 8
15 8
16 8
17 8
18 8
19 8
20 8
21 8
22 8
23 8
24 8
25 8
26 8
27 8
28 8
29 8
30 8
31 8
32 8
33 8
34 8
35 8
36 8
37 8
38 8
39 8
40 8
41 8
42 8
43 8
44 8
45 8
46 8
47 8
48 8
49 8
50 8
51 8
52 8
53 8
54 8
55 8
56 8
57 8
58 8
59 8
60 8
61 8
62 8
63 8
64 8
65 8
66 8
67 8
68 8
69 8
70 8
71 8
72 8
73 8
74 8
75 8
76 8
77 8
78 8
79 8
80 8
81 8
82 8
83 8
84 8
85 8
86 8
87 8
88 8
89 8
90 8
91 8
92 8
93 8
94 8
95 8
96 8
97 8
98 8
99 8
100 8
101 8
102 8
103 8
104 8
105 8
106 8
13 9
14 9
15 9
16 9
17 9
18 9
19 9
20 9
21 9
22 9
23 9
24 9
25 9
26 9
27 9
28 9
29 9
30 9
31 9
32 9
33 9
34 9
35 9
36 9
37 9
38 9
39 9
40 9
41 9
42 9
43 9
44 9
45 9
46 9
47 9
48 9
49 9
50 9
51 9
52 9
53 9
54 9
55 9
56 9
57 9
58 9
59 9
60 9
61 9
62 9
63 9
64 9
65 9
66 9
67 9
68 9
69 9
70 9
71 9
72 9
73 9
74 9
75 9
76 9
77 9
78 9
79 9
80 9
81 9
82 9
83 9
84 9
85 9
86 9
87 9
88 9
89 9
90 9
91 9
92 9
93 9
94 9
95 9
96 9
97 9
98 9
99 9
100 9
101 9
102 9
103 9
104 9
105 9
106 9
13 10
14 10
15 10
16 10
17 10
18 10
19 10
20 10
21 10
22 10
23 10
24 10
25 10
26 10
27 10
28 10
29 10
30 10
31 10
32 10
33 10
34 10
35 10
36 10
37 10
38 10
39 10
40 10
41 10
42 10
43 10
44 10
45 10
46 10
47 10
48 10
49 10
50 10
51 10
52 10
53 10
54 10
55 10
56 10
57 10
58 10
59 10
60 10
61 10
62 10
63 10
64 10
65 10
66 10
67 10
68 10
69 10
70 10
71 10
72 10
73 10
74 10
75 10
76 10
77 10
78 10
79 10
80 10
81 10
82 10
83 10
84 10
85 10
86 10
87 10
88 10
89 10
90 10
91 10
92 10
93 10
94 10
95 10
96 10
97 10
98 10
99 10
100 10
101 10
102 10
103 10
104 10
105 10
106 10
111 79
112 79
113 79
114 79
115 79
116 79
117 79
118 79
119 79
120 79
121 79
122 79
123 79
124 79
125 79
126 79
127 79
128 79
129 79
130 79
131 79
132 79
133 79
134 79
135 79
136 79
137 79
138 79
139 79
140 79
141 79
142 79
143 79
144 79
145 79
146 79
147 79
148 79
149 79
150 79
151 79
152 79
153 79
154 79
155 79
156 79
157 79
158 79
159 79
160 79
161 79
162 79
163 79
164 79
165 79
166 79
167 79
168 79
169 79
170 79
171 79
172 79
173 79
174 79
175 79
176 79
177 79
178 79
179 79
180 79
181 79
182 79
183 79
184 79
185 79
186 79
187 79
188 79
189 79
190 79
191 79
192 79
193 79
194 79
195 79
196 79
197 79
198 79
199 79
200 79
201 79
202 79
203 79
204 79
111 80
112 80
113 80
114 80
115 80
116 80
117 80
118 80
119 80
120 80
121 80
122 80
123 80
124 80
125 80
126 80
127 80
128 80
129 80
130 80
131 80
132 80
133 80
134 80
135 80
136 80
137 80
138 80
139 80
140 80
141 80
142 80
143 80
144 80
145 80
146 80
147 80
148 80
149 80
150 80
151 80
152 80
153 80
154 80
155 80
156 80
157 80
158 80
159 80
160 80
161 80
162 80
163 80
164 80
165 80
166 80
167 80
168 80
169 80
170 80
171 80
172 80
173 80
174 80
175 80
176 80
177 80
178 80
179 80
180 80
181 80
182 80
183 80
184 80
185 80
186 80
187 80
188 80
189 80
190 80
191 80
192 80
193 80
194 80
195 80
196 80
197 80
198 80
199 80
200 80
201 80
202 80
203 80
204 80
111 81
112 81
113 81
114 81
115 81
116 81
117 81
118 81
119 81
120 81
121 81
122 81
123 81
124 81
125 81
126 81
127 81
128 81
129 81
130 81
131 81
132 81
133 81
134 81
135 81
136 81
137 81
138 81
139 81
140 81
141 81
142 81
143 81
144 81
145 81
146 81
147 81
148 81
149 81
150 81
151 81
152 81
153 81
154 81
155 81
156 81
157 81
158 81
159 81
160 81
161 81
162 81
163 81
164 81
165 81
166 81
167 81
168 81
169 81
170 81
171 81
172 81
173 81
174 81
175 81
176 81
177 81
178 81
179 81
180 81
181 81
182 81
183 81
184 81
185 81
186 81
187 81
188 81
189 81
190 81
191 81
192 81
193 81
194 81
195 81
196 81
197 81
198 81
199 81
200 81
201 81
202 81
203 81
204 81
111 82
112 82
113 82
114 82
115 82
116 82
117 82
118 82
119 82
120 82
121 82
122 82
123 82
124 82
125 82
126 82
127 82
128 82
129 82
130 82
131 82
132 82
133 82
134 82
135 82
136 82
137 82
138 82
139 82
140 82
141 82
142 82
143 82
144 82
145 82
146 82
147 82
148 82
149 82
150 82
151 82
152 82
153 82
154 82
155 82
156 82
157 82
158 82
159 82
160 82
161 82
162 82
163 82
164 82
165 82
166 82
167 82
168 82
169 82
170 82
171 82
172 82
173 82
174 82
175 82
176 82
177 82
178 82
179 82
180 82
181 82
182 82
183 82
184 82
185 82
186 82
187 82
188 82
189 82
190 82
191 82
192 82
193 82
194 82
195 82
196 82
197 82
198 82
199 82
200 82
201 82
202 82
203 82
204 82
209 151
210 151
211 151
212 151
213 151
214 151
215 151
216 151
217 151
218 151
219 151
220 151
221 151
222 151
223 151
224 151
225 151
226 151
227 151
228 151
229 151
230 151
231 151
232 151
233 151
234 151
235 151
236 151
237 151
238 151
239 151
240 151
241 151
242 151
243 151
244 151
245 151
246 151
247 151
248 151
249 151
250 151
251 151
252 151
253 151
254 151
255 151
256 151
257 151
258 151
259 151
260 151
261 151
262 151
263 151
264 151
265 151
266 151
267 151
268 151
269 151
270 151
271 151
272 151
273 151
274 151
275 151
276 151
277 151
278 151
279 151
280 151
281 151
282 151
283 151
284 151
285 151
286 151
287 151
288 151
289 151
290 151
291 151
292 151
293 151
294 151
295 151
296 151
297 151
298 151
299 151
300 151
301 151
302 151
209 152
210 152
211 152
212 152
213 152
214 152
215 152
216 152
217 152
218 152
219 152
220 152
221 152
222 152
223 152
224 152
225 152
226 152
227 152
228 152
229 152
230 152
231 152
232 152
233 152
234 152
235 152
236 152
237 152
238 152
239 152
240 152
241 152
242 152
243 152
244 152
245 152
246 152
247 152
248 152
249 152
250 152
251 152
252 152
253 152
254 152
255 152
256 152
257 152
258 152
259 152
260 152
261 152
262 152
263 152
264 152
265 152
266 152
267 152
268 152
269 152
270 152
271 152
272 152
273 152
274 152
275 152
276 152
277 152
278 152
279 152
280 152
281 152
282 152
283 152
284 152
285 152
286 152
287 152
288 152
289 152
290 152
291 152
292 152
293 152
294 152
295 152
296 152
297 152
298 152
299 152
300 152
301 152
302 152
209 153
210 153
211 153
212 153
213 153
214 153
215 153
216 153
217 153
218 153
219 153
220 153
221 153
222 153
223 153
224 153
225 153
226 153
227 153
228 153
229 153
230 153
231 153
232 153
233 153
234 153
235 153
236 153
237 153
238 153
239 153
240 153
241 153
242 153
243 153
244 153
245 153
246 153
247 153
248 153
249 153
250 153
251 153
252 153
253 153
254 153
255 153
256 153
257 153
258 153
259 153
260 153
261 153
262 153
263 153
264 153
265 153
266 153
267 153
268 153
269 153
270 153
271 153
272 153
273 153
274 153
275 153
276 153
277 153
278 153
279 153
280 153
281 153
282 153
283 153
284 153
285 153
286 153
287 153
288 153
289 153
290 153
291 153
292 153
293 153
294 153
295 153
296 153
297 153
298 153
299 153
300 153
301 153
302 153
209 154
210 154
211 154
212 154
213 154
214 154
215 154
216 154
217 154
218 154
219 154
220 154
221 154
222 154
223 154
224 154
225 154
226 154
227 154
228 154
229 154
230 154
231 154
232 154
233 154
234 154
235 154
236 154
237 154
238 154
239 154
240 154
241 154
242 154
243 154
244 154
245 154
246 154
247 154
248 154
249 154
250 154
251 154
252 154
253 154
254 154
255 154
256 154
257 154
258 154
259 154
260 154
261 154
262 154
263 154
264 154
265 154
266 154
267 154
268 154
269 154
270 154
271 154
272 154
273 154
274 154
275 154
276 154
277 154
278 154
279 154
280 154
281 154
282 154
283 154
284 154
285 154
286 154
287 154
288 154
289 154
290 154
291 154
292 154
293 154
294 154
295 154
296 154
297 154
298 154
299 154
300 154
301 154
302 154
307 223
308 223
309 223
310 223
311 223
312 223
313 223
314 223
315 223
316 223
317 223
318 223
319 223
320 223
321 223
322 223
323 223
324 223
325 223
326 223
327 223
328 223
329 223
330 223
331 223
332 223
333 223
334 223
335 223
336 223
337 223
338 223
339 223
340 223
341 223
342 223
343 223
344 223
345 223
346 223
347 223
348 223
349 223
350 223
351 223
352 223
353 223
354 223
355 223
356 223
357 223
358 223
359 223
360 223
361 223
362 223
363 223
364 223
365 223
366 223
367 223
368 223
369 223
370 223
371 223
372 223
373 223
374 223
375 223
376 223
377 223
378 223
379 223
380 223
381 223
382 223
383 223
384 223
385 223
386 223
387 223
388 223
389 223
390 223
391 223
392 223
393 223
394 223
395 223
396 223
397 223
398 223
399 223
400 223
307 224
308 224
309 224
310 224
311 224
312 224
313 224
314 224
315 224
316 224
317 224
318 224
319 224
320 224
321 224
322 224
323 224
324 224
325 224
326 224
327 224
328 224
329 224
330 224
331 224
332 224
333 224
334 224
335 224
336 224
337 224
338 224
339 224
340 224
341 224
342 224
343 224
344 224
345 224
346 224
347 224
348 224
349 224
350 224
351 224
352 224
353 224
354 224
355 224
356 224
357 224
358 224
359 224
360 224
361 224
362 224
363 224
364 224
365 224
366 224
367 224
368 224
369 224
370 224
371 224
372 224
373 224
374 224
375 224
376 224
377 224
378 224
379 224
380 224
381 224
382 224
383 224
384 224
385 224
386 224
387 224
388 224
389 224
390 224
391 224
392 224
393 224
394 224
395 224
396 224
397 224
398 224
399 224
400 224
307 225
308 225
309 225
310 225
311 225
312 225
313 225
314 225
315 225
316 225
317 225
318 225
319 225
320 225
321 225
322 225
323 225
324 225
325 225
326 225
327 225
328 225
329 225
330 225
331 225
332 225
333 225
334 225
335 225
336 225
337 225
338 225
339 225
340 225
341 225
342 225
343 225
344 225
345 225
346 225
347 225
348 225
349 225
350 225
351 225
352 225
353 225
354 225
355 225
356 225
357 225
358 225
359 225
360 225
361 225
362 225
363 225
364 225
365 225
366 225
367 225
368 225
369 225
370 225
371 225
372 225
373 225
374 225
375 225
376 225
377 225
378 225
379 225
380 225
381 225
382 225
383 225
384 225
385 225
386 225
387 225
388 225
389 225
390 225
391 225
392 225
393 225
394 225
395 225
396 225
397 225
398 225
399 225
400 225
307 226
308 226
309 226
310 226
311 226
312 226
313 226
314 226
315 226
316 226
317 226
318 226
319 226
320 226
321 226
322 226
323 226
324 226
325 226
326 226
327 226
328 226
329 226
330 226
331 226
332 226
333 226
334 226
335 226
336 226
337 226
338 226
339 226
340 226
341 226
342 226
343 226
344 226
345 226
346 226
347 226
348 226
349 226
350 226
351 226
352 226
353 226
354 226
355 226
356 226
357 226
358 226
359 226
360 226
361 226
362 226
363 226
364 226
365 226
366 226
367 226
368 226
369 226
370 226
371 226
372 226
373 226
374 226
375 226
376 226
377 226
378 226
379 226
380 226
381 226
382 226
383 226
384 226
385 226
386 226
387 226
388 226
389 226
390 226
391 226
392 226
393 226
394 226
395 226
396 226
397 226
398 226
399 226
400 226
405 295
406 295
407 295
408 295
409 295
410 295
411 295
412 295
413 295
414 295
415 295
416 295
417 295
418 295
419 295
420 295
421 295
422 295
423 295
424 295
425 295
426 295
427 295
428 295
429 295
430 295
431 295
432 295
433 295
434 295
435 295
436 295
437 295
438 295
439 295
440 295
441 295
442 295
443 295
444 295
445 295
446 295
447 295
448 295
449 295
450 295
451 295
452 295
453 295
454 295
455 295
456 295
457 295
458 295
459 295
460 295
461 295
462 295
463 295
464 295
465 295
466 295
467 295
468 295
469 295
470 295
471 295
472 295
473 295
474 295
475 295
476 295
477 295
478 295
479 295
480 295
481 295
482 295
483 295
484 295
485 295
486 295
487 295
488 295
489 295
490 295
491 295
492 295
493 295
494 295
495 295
496 295
497 295
498 295
405 296
406 296
407 296
408 296
409 296
410 296
411 296
412 296
413 296
414 296
415 296
416 296
417 296
418 296
419 296
420 296
421 296
422 296
423 296
424 296
425 296
426 296
427 296
428 296
429 296
430 296
431 296
432 296
433 296
434 296
435 296
436 296
437 296
438 296
439 296
440 296
441 296
442 296
443 296
444 296
445 296
446 296
447 296
448 296
449 296
450 296
451 296
452 296
453 296
454 296
455 296
456 296
457 296
458 296
459 296
460 296
461 296
462 296
463 296
464 296
465 296
466 296
467 296
468 296
469 296
470 296
471 296
472 296
473 296
474 296
475 296
476 296
477 296
478 296
479 296
480 296
481 296
482 296
483 296
484 296
485 296
486 296
487 296
488 296
489 296
490 296
491 296
492 296
493 296
494 296
495 296
496 296
497 296
498 296
405 297
406 297
407 297
408 297
409 297
410 297
411 297
412 297
413 297
414 297
415 297
416 297
417 297
418 297
419 297
420 297
421 297
422 297
423 297
424 297
425 297
426 297
427 297
428 297
429 297
430 297
431 297
432 297
433 297
434 297
435 297
436 297
437 297
438 297
439 297
440 297
441 297
442 297
443 297
444 297
445 297
446 297
447 297
448 297
449 297
450 297
451 297
452 297
453 297
454 297
455 297
456 297
457 297
458 297
459 297
460 297
461 297
462 297
463 297
464 297
465 297
466 297
467 297
468 297
469 297
470 297
471 297
472 297
473 297
474 297
475 297
476 297
477 297
478 297
479 297
480 297
481 297
482 297
483 297
484 297
485 297
486 297
487 297
488 297
489 297
490 297
491 297
492 297
493 297
494 297
495 297
496 297
497 297
498 297
405 298
406 298
407 298
408 298
409 298
410 298
411 298
412 298
413 298
414 298
415 298
416 298
417 298
418 298
419 298
420 298
421 298
422 298
423 298
424 298
425 298
426 298
427 298
428 298
429 298
430 298
431 298
432 298
433 298
434 298
435 298
436 298
437 298
438 298
439 298
440 298
441 298
442 298
443 298
444 298
445 298
446 298
447 298
448 298
449 298
450 298
451 298
452 298
453 298
454 298
455 298
456 298
457 298
458 298
459 298
460 298
461 298
462 298
463 298
464 298
465 298
466 298
467 298
468 298
469 298
470 298
471 298
472 298
473 298
474 298
475 298
476 298
477 298
478 298
479 298
480 298
481 298
482 298
483 298
484 298
485 298
486 298
487 298
488 298
489 298
490 298
491 298
492 298
493 298
494 298
495 298
496 298
497 298
498 298
503 367
504 367
505 367
506 367
507 367
508 367
509 367
510 367
511 367
512 367
513 367
514 367
515 367
516 367
517 367
518 367
519 367
520 367
521 367
522 367
523 367
524 367
525 367
526 367
527 367
528 367
529 367
530 367
531 367
532 367
533 367
534 367
535 367
536 367
537 367
538 367
539 367
540 367
541 367
542 367
543 367
544 367
545 367
546 367
547 367
548 367
549 367
550 367
551 367
552 367
553 367
554 367
555 367
556 367
557 367
558 367
559 367
560 367
561 367
562 367
563 367
564 367
565 367
566 367
567 367
568 367
569 367
570 367
571 367
572 367
573 367
574 367
575 367
576 367
577 367
578 367
579 367
580 367
581 367
582 367
583 367
584 367
585 367
586 367
587 367
588 367
589 367
590 367
591 367
592 367
593 367
594 367
595 367
596 367
503 368
504 368
505 368
506 368
507 368
508 368
509 368
510 368
511 368
512 368
513 368
514 368
515 368
516 368
517 368
518 368
519 368
520 368
521 368
522 368
523 368
524 368
525 368
526 368
527 368
528 368
529 368
530 368
531 368
532 368
533 368
534 368
535 368
536 368
537 368
538 368
539 368
540 368
541 368
542 368
543 368
544 368
545 368
546 368
547 368
548 368
549 368
550 368
551 368
552 368
553 368
554 368
555 368
556 368
557 368
558 368
559 368
560 368
561 368
562 368
563 368
564 368
565 368
566 368
567 368
568 368
569 368
570 368
571 368
572 368
573 368
574 368
575 368
576 368
577 368
578 368
579 368
580 368
581 368
582 368
583 368
584 368
585 368
586 368
587 368
588 368
589 368
590 368
591 368
592 368
593 368
594 368
595 368
596 368
503 369
504 369
505 369
506 369
507 369
508 369
509 369
510 369
511 369
512 369
513 369
514 369
515 369
516 369
517 369
518 369
519 369
520 369
521 369
522 369
523 369
524 369
525 369
526 369
527 369
528 369
529 369
530 369
531 369
532 369
533 369
534 369
535 369
536 369
537 369
538 369
539 369
540 369
541 369
542 369
543 369
544 369
545 369
546 369
547 369
548 369
549 369
550 369
551 369
552 369
553 369
554 369
555 369
556 369
557 369
558 369
559 369
560 369
561 369
562 369
563 369
564 369
565 369
566 369
567 369
568 369
569 369
570 369
571 369
572 369
573 369
574 369
575 369
576 369
577 369
578 369
579 369
580 369
581 369
582 369
583 369
584 369
585 369
586 369
587 369
588 369
589 369
590 369
591 369
592 369
593 369
594 369
595 369
596 369
503 370
504 370
505 370
506 370
507 370
508 370
509 370
510 370
511 370
512 370
513 370
514 370
515 370
516 370
517 370
518 370
519 370
520 370
521 370
522 370
523 370
524 370
525 370
526 370
527 370
528 370
529 370
530 370
531 370
532 370
533 370
534 370
535 370
536 370
537 370
538 370
539 370
540 370
541 370
542 370
543 370
544 370
545 370
546 370
547 370
548 370
549 370
550 370
551 370
552 370
553 370
554 370
555 370
556 370
557 370
558 370
559 370
560 370
561 370
562 370
563 370
564 370
565 370
566 370
567 370
568 370
569 370
570 370
571 370
572 370
573 370
574 370
575 370
576 370
577 370
578 370
579 370
580 370
581 370
582 370
583 370
584 370
585 370
586 370
587 370
588 370
589 370
590 370
591 370
592 370
593 370
594 370
595 370
596 370
601 439
602 439
603 439
604 439
605 439
606 439
607 439
608 439
609 439
610 439
611 439
612 439
613 439
614 439
615 439
616 439
617 439
618 439
619 439
620 439
621 439
622 439
623 439
624 439
625 439
626 439
627 439
628 439
629 439
630 439
631 439
632 439
633 439
634 439
635 439
636 439
637 439
638 439
639 439
640 439
641 439
642 439
643 439
644 439
645 439
646 439
647 439
648 439
649 439
650 439
651 439
652 439
653 439
654 439
655 439
656 439
657 439
658 439
659 439
660 439
661 439
662 439
663 439
664 439
665 439
666 439
667 439
668 439
669 439
670 439
671 439
672 439
673 439
674 439
675 439
676 439
677 439
678 439
679 439
680 439
681 439
682 439
683 439
684 439
685 439
686 439
687 439
688 439
689 439
690 439
691 439
692 439
693 439
694 439
601 440
602 440
603 440
604 440
605 440
606 440
607 440
608 440
609 440
610 440
611 440
612 440
613 440
614 440
615 440
616 440
617 440
618 440
619 440
620 440
621 440
622 440
623 440
624 440
625 440
626 440
627 440
628 440
629 440
630 440
631 440
632 440
633 440
634 440
635 440
636 440
637 440
638 440
639 440
640 440
641 440
642 440
643 440
644 440
645 440
646 440
647 440
648 440
649 440
650 440
651 440
652 440
653 440
654 440
655 440
656 440
657 440
658 440
659 440
660 440
661 440
662 440
663 440
664 440
665 440
666 440
667 440
668 440
669 440
670 440
671 440
672 440
673 440
674 440
675 440
676 440
677 440
678 440
679 440
680 440
681 440
682 440
683 440
684 440
685 440
686 440
687 440
688 440
689 440
690 440
691 440
692 440
693 440
694 440
601 441
602 441
603 441
604 441
605 441
606 441
607 441
608 441
609 441
610 441
611 441
612 441
613 441
614 441
615 441
616 441
617 441
618 441
619 441
620 441
621 441
622 441
623 441
624 441
625 441
626 441
627 441
628 441
629 441
630 441
631 441
632 441
633 441
634 441
635 441
636 441
637 441
638 441
639 441
640 441
641 441
642 441
643 441
644 441
645 441
646 441
647 441
648 441
649 441
650 441
651 441
652 441
653 441
654 441
655 441
656 441
657 441
658 441
659 441
660 441
661 441
662 441
663 441
664 441
665 441
666 441
667 441
668 441
669 441
670 441
671 441
672 441
673 441
674 441
675 441
676 441
677 441
678 441
679 441
680 441
681 441
682 441
683 441
684 441
685 441
686 441
687 441
688 441
689 441
690 441
691 441
692 441
693 441
694 441
601 442
602 442
603 442
604 442
605 442
606 442
607 442
608 442
609 442
610 442
611 442
612 442
613 442
614 442
615 442
616 442
617 442
618 442
619 442
620 442
621 442
622 442
623 442
624 442
625 442
626 442
627 442
628 442
629 442
630 442
631 442
632 442
633 442
634 442
635 442
636 442
637 442
638 442
639 442
640 442
641 442
642 442
643 442
644 442
645 442
646 442
647 442
648 442
649 442
650 442
651 442
652 442
653 442
654 442
655 442
656 442
657 442
658 442
659 442
660 442
661 442
662 442
663 442
664 442
665 442
666 442
667 442
668 442
669 442
670 442
671 442
672 442
673 442
674 442
675 442
676 442
677 442
678 442
679 442
680 442
681 442
682 442
683 442
684 442
685 442
686 442
687 442
688 442
689 442
690 442
691 442
692 442
693 442
694 442
699 511
700 511
701 511
702 511
703 511
704 511
705 511
706 511
707 511
708 511
709 511
710 511
711 511
712 511
713 511
714 511
715 511
716 511
717 511
718 511
719 511
720 511
721 511
722 511
723 511
724 511
725 511
726 511
727 511
728 511
729 511
730 511
731 511
732 511
733 511
734 511
735 511
736 511
737 511
738 511
739 511
740 511
741 511
742 511
743 511
744 511
745 511
746 511
747 511
748 511
749 511
750 511
751 511
752 511
753 511
754 511
755 511
756 511
757 511
758 511
759 511
760 511
761 511
762 511
763 511
764 511
765 511
766 511
767 511
768 511
769 511
770 511
771 511
772 511
773 511
774 511
775 511
776 511
777 511
778 511
779 511
780 511
781 511
782 511
783 511
784 511
785 511
786 511
787 511
788 511
789 511
790 511
791 511
792 511
699 512
700 512
701 512
702 512
703 512
704 512
705 512
706 512
707 512
708 512
709 512
710 512
711 512
712 512
713 512
714 512
715 512
716 512
717 512
718 512
719 512
720 512
721 512
722 512
723 512
724 512
725 512
726 512
727 512
728 512
729 512
730 512
731 512
732 512
733 512
734 512
735 512
736 512
737 512
738 512
739 512
740 512
741 512
742 512
743 512
744 512
745 512
746 512
747 512
748 512
749 512
750 512
751 512
752 512
753 512
754 512
755 512
756 512
757 512
758 512
759 512
760 512
761 512
762 512
763 512
764 512
765 512
766 512
767 512
768 512
769 512
770 512
771 512
772 512
773 512
774 512
775 512
776 512
777 512
778 512
779 512
780 512
781 512
782 512
783 512
784 512
785 512
786 512
787 512
788 512
789 512
790 512
791 512
792 512
699 513
700 513
701 513
702 513
703 513
704 513
705 513
706 513
707 513
708 513
709 513
710 513
711 513
712 513
713 513
714 513
715 513
716 513
717 513
718 513
719 513
720 513
721 513
722 513
723 513
724 513
725 513
726 513
727 513
728 513
729 513
730 513
731 513
732 513
733 513
734 513
735 513
736 513
737 513
738 513
739 513
740 513
741 513
742 513
743 513
744 513
745 513
746 513
747 513
748 513
749 513
750 513
751 513
752 513
753 513
754 513
755 513
756 513
757 513
758 513
759 513
760 513
761 513
762 513
763 513
764 513
765 513
766 513
767 513
768 513
769 513
770 513
771 513
772 513
773 513
774 513
775 513
776 513
777 513
778 513
779 513
780 513
781 513
782 513
783 513
784 513
785 513
786 513
787 513
788 513
789 513
790 513
791 513
792 513
699 514
700 514
701 514
702 514
703 514
704 514
705 514
706 514
707 514
708 514
709 514
710 514
711 514
712 514
713 514
714 514
715 514
716 514
717 514
718 514
719 514
720 514
721 514
722 514
723 514
724 514
725 514
726 514
727 514
728 514
729 514
730 514
731 514
732 514
733 514
734 514
735 514
736 514
737 514
738 514
739 514
740 514
741 514
742 514
743 514
744 514
745 514
746 514
747 514
748 514
749 514
750 514
751 514
752 514
753 514
754 514
755 514
756 514
757 514
758 514
759 514
760 514
761 514
762 514
763 514
764 514
765 514
766 514
767 514
768 514
769 514
770 514
771 514
772 514
773 514
774 514
775 514
776 514
777 514
778 514
779 514
780 514
781 514
782 514
783 514
784 514
785 514
786 514
787 514
788 514
789 514
790 514
791 514
792 514
797 583
798 583
799 583
800 583
801 583
802 583
803 583
804 583
805 583
806 583
807 583
808 583
809 583
810 583
811 583
812 583
813 583
814 583
815 583
816 583
817 583
818 583
819 583
820 583
821 583
822 583
823 583
824 583
825 583
826 583
827 583
828 583
829 583
830 583
831 583
832 583
833 583
834 583
835 583
836 583
837 583
838 583
839 583
840 583
841 583
842 583
843 583
844 583
845 583
846 583
847 583
848 583
849 583
850 583
851 583
852 583
853 583
854 583
855 583
856 583
857 583
858 583
859 583
860 583
861 583
862 583
863 583
864 583
865 583
866 583
867 583
868 583
869 583
870 583
871 583
872 583
873 583
874 583
875 583
876 583
877 583
878 583
879 583
880 583
881 583
882 583
883 583
884 583
885 583
886 583
887 583
888 583
889 583
890 583
797 584
798 584
799 584
800 584
801 584
802 584
803 584
804 584
805 584
806 584
807 584
808 584
809 584
810 584
811 584
812 584
813 584
814 584
815 584
816 584
817 584
818 584
819 584
820 584
821 584
822 584
823 584
824 584
825 584
826 584
827 584
828 584
829 584
830 584
831 584
832 584
833 584
834 584
835 584
836 584
837 584
838 584
839 584
840 584
841 584
842 584
843 584
844 584
845 584
846 584
847 584
848 584
849 584
850 584
851 584
852 584
853 584
854 584
855 584
856 584
857 584
858 584
859 584
860 584
861 584
862 584
863 584
864 584
865 584
866 584
867 584
868 584
869 584
870 584
871 584
872 584
873 584
874 584
875 584
876 584
877 584
878 584
879 584
880 584
881 584
882 584
883 584
884 584
885 584
886 584
887 584
888 584
889 584
890 584
797 585
798 585
799 585
800 585
801 585
802 585
803 585
804 585
805 585
806 585
807 585
808 585
809 585
810 585
811 585
812 585
813 585
814 585
815 585
816 585
817 585
818 585
819 585
820 585
821 585
822 585
823 585
824 585
825 585
826 585
827 585
828 585
829 585
830 585
831 585
832 585
833 585
834 585
835 585
836 585
837 585
838 585
839 585
840 585
841 585
842 585
843 585
844 585
845 585
846 585
847 585
848 585
849 585
850 585
851 585
852 585
853 585
854 585
855 585
856 585
857 585
858 585
859 585
860 585
861 585
862 585
863 585
864 585
865 585
866 585
867 585
868 585
869 585
870 585
871 585
872 585
873 585
874 585
875 585
876 585
877 585
878 585
879 585
880 585
881 585
882 585
883 585
884 585
885 585
886 585
887 585
888 585
889 585
890 585
797 586
798 586
799 586
800 586
801 586
802 586
803 586
804 586
805 586
806 586
807 586
808 586
809 586
810 586
811 586
812 586
813 586
814 586
815 586
816 586
817 586
818 586
819 586
820 586
821 586
822 586
823 586
824 586
825 586
826 586
827 586
828 586
829 586
830 586
831 586
832 586
833 586
834 586
835 586
836 586
837 586
838 586
839 586
840 586
841 586
842 586
843 586
844 586
845 586
846 586
847 586
848 586
849 586
850 586
851 586
852 586
853 586
854 586
855 586
856 586
857 586
858 586
859 586
860 586
861 586
862 586
863 586
864 586
865 586
866 586
867 586
868 586
869 586
870 586
871 586
872 586
873 586
874 586
875 586
876 586
877 586
878 586
879 586
880 586
881 586
882 586
883 586
884 586
885 586
886 586
887 586
888 586
889 586
890 586
895 655
896 655
897 655
898 655
899 655
900 655
901 655
902 655
903 655
904 655
905 655
906 655
907 655
908 655
909 655
910 655
911 655
912 655
913 655
914 655
915 655
916 655
917 655
918 655
919 655
920 655
921 655
922 655
923 655
924 655
925 655
926 655
927 655
928 655
929 655
930 655
931 655
932 655
933 655
934 655
935 655
936 655
937 655
938 655
939 655
940 655
941 655
942 655
943 655
944 655
945 655
946 655
947 655
948 655
949 655
950 655
951 655
952 655
953 655
954 655
955 655
956 655
957 655
958 655
959 655
960 655
961 655
962 655
963 655
964 655
965 655
966 655
967 655
968 655
969 655
970 655
971 655
972 655
973 655
974 655
975 655
976 655
977 655
978 655
979 655
980 655
981 655
982 655
983 655
984 655
985 655
986 655
987 655
988 655
895 656
896 656
897 656
898 656
899 656
900 656
901 656
902 656
903 656
904 656
905 656
906 656
907 656
908 656
909 656
910 656
911 656
912 656
913 656
914 656
915 656
916 656
917 656
918 656
919 656
920 656
921 656
922 656
923 656
924 656
925 656
926 656
927 656
928 656
929 656
930 656
931 656
932 656
933 656
934 656
935 656
936 656
937 656
938 656
939 656
940 656
941 656
942 656
943 656
944 656
945 656
946 656
947 656
948 656
949 656
950 656
951 656
952 656
953 656
954 656
955 656
956 656
957 656
958 656
959 656
960 656
961 656
962 656
963 656
964 656
965 656
966 656
967 656
968 656
969 656
970 656
971 656
972 656
973 656
974 656
975 656
976 656
977 656
978 656
979 656
980 656
981 656
982 656
983 656
984 656
985 656
986 656
987 656
988 656
895 657
896 657
897 657
898 657
899 657
900 657
901 657
902 657
903 657
904 657
905 657
906 657
907 657
908 657
909 657
910 657
911 657
912 657
913 657
914 657
915 657
916 657
917 657
918 657
919 657
920 657
921 657
922 657
923 657
924 657
925 657
926 657
927 657
928 657
929 657
930 657
931 657
932 657
933 657
934 657
935 657
936 657
937 657
938 657
939 657
940 657
941 657
942 657
943 657
944 657
945 657
946 657
947 657
948 657
949 657
950 657
951 657
952 657
953 657
954 657
955 657
956 657
957 657
958 657
959 657
960 657
961 657
962 657
963 657
964 657
965 657
966 657
967 657
968 657
969 657
970 657
971 657
972 657
973 657
974 657
975 657
976 657
977 657
978 657
979 657
980 657
981 657
982 657
983 657
984 657
985 657
986 657
987 657
988 657
895 658
896 658
897 658
898 658
899 658
900 658
901 658
902 658
903 658
904 658
905 658
906 658
907 658
908 658
909 658
910 658
911 658
912 658
913 658
914 658
915 658
916 658
917 658
918 658
919 658
920 658
921 658
922 658
923 658
924 658
925 658
926 658
927 658
928 658
929 658
930 658
931 658
932 658
933 658
934 658
935 658
936 658
937 658
938 658
939 658
940 658
941 658
942 658
943 658
944 658
945 658
946 658
947 658
948 658
949 658
950 658
951 658
952 658
953 658
954 658
955 658
956 658
957 658
958 658
959 658
960 658
961 658
962 658
963 658
964 658
965 658
966 658
967 658
968 658
969 658
970 658
971 658
972 658
973 658
974 658
975 658
976 658
977 658
978 658
979 658
980 658
981 658
982 658
983 658
984 658
985 658
986 658
987 658
988 658
993 727
994 727
995 727
996 727
997 727
998 727
999 727
1000 727
1001 727
1002 727
1003 727
1004 727
1005 727
1006 727
1007 727
1008 727
1009 727
1010 727
1011 727
1012 727
1013 727
1014 727
1015 727
1016 727
1017 727
1018 727
1019 727
1020 727
1021 727
1022 727
1023 727
1024 727
1025 727
1026 727
1027 727
1028 727
1029 727
1030 727
1031 727
1032 727
1033 727
1034 727
1035 727
1036 727
1037 727
1038 727
1039 727
1040 727
1041 727
1042 727
1043 727
1044 727
1045 727
1046 727
1047 727
1048 727
1049 727
1050 727
1051 727
1052 727
1053 727
1054 727
1055 727
1056 727
1057 727
1058 727
1059 727
1060 727
1061 727
1062 727
1063 727
1064 727
1065 727
1066 727
1067 727
1068 727
1069 727
1070 727
1071 727
1072 727
1073 727
1074 727
1075 727
1076 727
1077 727
1078 727
1079 727
1080 727
1081 727
1082 727
1083 727
1084 727
1085 727
1086 727
993 728
994 728
995 728
996 728
997 728
998 728
999 728
1000 728
1001 728
1002 728
1003 728
1004 728
1005 728
1006 728
1007 728
1008 728
1009 728
1010 728
1011 728
1012 728
1013 728
1014 728
1015 728
1016 728
1017 728
1018 728
1019 728
1020 728
1021 728
1022 728
1023 728
1024 728
1025 728
1026 728
1027 728
1028 728
1029 728
1030 728
1031 728
1032 728
1033 728
1034 728
1035 728
1036 728
1037 728
1038 728
1039 728
1040 728
1041 728
1042 728
1043 728
1044 728
1045 728
1046 728
1047 728
1048 728
1049 728
1050 728
1051 728
1052 728
1053 728
1054 728
1055 728
1056 728
1057 728
1058 728
1059 728
1060 728
1061 728
1062 728
1063 728
1064 728
1065 728
1066 728
1067 728
1068 728
1069 728
1070 728
1071 728
1072 728
1073 728
1074 728
1075 728
1076 728
1077 728
1078 728
1079 728
1080 728
1081 728
1082 728
1083 728
1084 728
1085 728
1086 728
993 729
994 729
995 729
996 729
997 729
998 729
999 729
1000 729
1001 729
1002 729
1003 729
1004 729
1005 729
1006 729
1007 729
1008 729
1009 729
1010 729
1011 729
1012 729
1013 729
1014 729
1015 729
1016 729
1017 729
1018 729
1019 729
1020 729
1021 729
1022 729
1023 729
1024 729
1025 729
1026 729
1027 729
1028 729
1029 729
1030 729
1031 729
1032 729
1033 729
1034 729
1035 729
1036 729
1037 729
1038 729
1039 729
1040 729
1041 729
1042 729
1043 729
1044 729
1045 729
1046 729
1047 729
1048 729
1049 729
1050 729
1051 729
1052 729
1053 729
1054 729
1055 729
1056 729
1057 729
1058 729
1059 729
1060 729
1061 729
1062 729
1063 729
1064 729
1065 729
1066 729
1067 729
1068 729
1069 729
1070 729
1071 729
1072 729
1073 729
1074 729
1075 729
1076 729
1077 729
1078 729
1079 729
1080 729
1081 729
1082 729
1083 729
1084 729
1085 729
1086 729
993 730
994 730
995 730
996 730
997 730
998 730
999 730
1000 730
1001 730
1002 730
1003 730
1004 730
1005 730
1006 730
1007 730
1008 730
1009 730
1010 730
1011 730
1012 730
1013 730
1014 730
1015 730
1016 730
1017 730
1018 730
1019 730
1020 730
1021 730
1022 730
1023 730
1024 730
1025 730
1026 730
1027 730
1028 730
1029 730
1030 730
1031 730
1032 730
1033 730
1034 730
1035 730
1036 730
1037 730
1038 730
1039 730
1040 730
1041 730
1042 730
1043 730
1044 730
1045 730
1046 730
1047 730
1048 730
1049 730
1050 730
1051 730
1052 730
1053 730
1054 730
1055 730
1056 730
1057 730
1058 730
1059 730
1060 730
1061 730
1062 730
1063 730
1064 730
1065 730
1066 730
1067 730
1068 730
1069 730
1070 730
1071 730
1072 730
1073 730
1074 730
1075 730
1076 730
1077 730
1078 730
1079 730
1080 730
1081 730
1082 730
1083 730
1084 730
1085 730
1086 730
1091 799
1092 799
1093 799
1094 799
1095 799
1096 799
1097 799
1098 799
1099 799
1100 799
1101 799
1102 799
1103 799
1104 799
1105 799
1106 799
1107 799
1108 799
1109 799
1110 799
1111 799
1112 799
1113 799
1114 799
1115 799
1116 799
1117 799
1118 799
1119 799
1120 799
1121 799
1122 799
1123 799
1124 799
1125 799
1126 799
1127 799
1128 799
1129 799
1130 799
1131 799
1132 799
1133 799
1134 799
1135 799
1136 799
1137 799
1138 799
1139 799
1140 799
1141 799
1142 799
1143 799
1144 799
1145 799
1146 799
1147 799
1148 799
1149 799
1150 799
1151 799
1152 799
1153 799
1154 799
1155 799
1156 799
1157 799
1158 799
1159 799
1160 799
1161 799
1162 799
1163 799
1164 799
1165 799
1166 799
1167 799
1168 799
1169 799
1170 799
1171 799
1172 799
1173 799
1174 799
1175 799
1176 799
1177 799
1178 799
1179 799
1180 799
1181 799
1182 799
1183 799
1184 799
1091 800
1092 800
1093 800
1094 800
1095 800
1096 800
1097 800
1098 800
1099 800
1100 800
1101 800
1102 800
1103 800
1104 800
1105 800
1106 800
1107 800
1108 800
1109 800
1110 800
1111 800
1112 800
1113 800
1114 800
1115 800
1116 800
1117 800
1118 800
1119 800
1120 800
1121 800
1122 800
1123 800
1124 800
1125 800
1126 800
1127 800
1128 800
1129 800
1130 800
1131 800
1132 800
1133 800
1134 800
1135 800
1136 800
1137 800
1138 800
1139 800
1140 800
1141 800
1142 800
1143 800
1144 800
1145 800
1146 800
1147 800
1148 800
1149 800
1150 800
1151 800
1152 800
1153 800
1154 800
1155 800
1156 800
1157 800
1158 800
1159 800
1160 800
1161 800
1162 800
1163 800
1164 800
1165 800
1166 800
1167 800
1168 800
1169 800
1170 800
1171 800
1172 800
1173 800
1174 800
1175 800
1176 800
1177 800
1178 800
1179 800
1180 800
1181 800
1182 800
1183 800
1184 800
1091 801
1092 801
1093 801
1094 801
1095 801
1096 801
1097 801
1098 801
1099 801
1100 801
1101 801
1102 801
1103 801
1104 801
1105 801
1106 801
1107 801
1108 801
1109 801
1110 801
1111 801
1112 801
1113 801
1114 801
1115 801
1116 801
1117 801
1118 801
1119 801
1120 801
1121 801
1122 801
1123 801
1124 801
1125 801
1126 801
1127 801
1128 801
1129 801
1130 801
1131 801
1132 801
1133 801
1134 801
1135 801
1136 801
1137 801
1138 801
1139 801
1140 801
1141 801
1142 801
1143 801
1144 801
1145 801
1146 801
1147 801
1148 801
1149 801
1150 801
1151 801
1152 801
1153 801
1154 801
1155 801
1156 801
1157 801
1158 801
1159 801
1160 801
1161 801
1162 801
1163 801
1164 801
1165 801
1166 801
1167 801
1168 801
1169 801
1170 801
1171 801
1172 801
1173 801
1174 801
1175 801
1176 801
1177 801
1178 801
1179 801
1180 801
1181 801
1182 801
1183 801
1184 801
1091 802
1092 802
1093 802
1094 802
1095 802
1096 802
1097 802
1098 802
1099 802
1100 802
1101 802
1102 802
1103 802
1104 802
1105 802
1106 802
1107 802
1108 802
1109 802
1110 802
1111 802
1112 802
1113 802
1114 802
1115 802
1116 802
1117 802
1118 802
1119 802
1120 802
1121 802
1122 802
1123 802
1124 802
1125 802
1126 802
1127 802
1128 802
1129 802
1130 802
1131 802
1132 802
1133 802
1134 802
1135 802
1136 802
1137 802
1138 802
1139 802
1140 802
1141 802
1142 802
1143 802
1144 802
1145 802
1146 802
1147 802
1148 802
1149 802
1150 802
1151 802
1152 802
1153 802
1154 802
1155 802
1156 802
1157 802
1158 802
1159 802
1160 802
1161 802
1162 802
1163 802
1164 802
1165 802
1166 802
1167 802
1168 802
1169 802
1170 802
1171 802
1172 802
1173 802
1174 802
1175 802
1176 802
1177 802
1178 802
1179 802
1180 802
1181 802
1182 802
1183 802
1184 802
1189 871
1190 871
1191 871
1192 871
1193 871
1194 871
1195 871
1196 871
1197 871
1198 871
1199 871
1200 871
1201 871
1202 871
1203 871
1204 871
1205 871
1206 871
1207 871
1208 871
1209 871
1210 871
1211 871
1212 871
1213 871
1214 871
1215 871
1216 871
1217 871
1218 871
1219 871
1220 871
1221 871
1222 871
1223 871
1224 871
1225 871
1226 871
1227 871
1228 871
1229 871
1230 871
1231 871
1232 871
1233 871
1234 871
1235 871
1236 871
1237 871
1238 871
1239 871
1240 871
1241 871
1242 871
1243 871
1244 871
1245 871
1246 871
1247 871
1248 871
1249 871
1250 871
1251 871
1252 871
1253 871
1254 871
1255 871
1256 871
1257 871
1258 871
1259 871
1260 871
1261 871
1262 871
1263 871
1264 871
1265 871
1266 871
1267 871
1268 871
1269 871
1270 871
1271 871
1272 871
1273 871
1274 871
1275 871
1276 871
1277 871
1278 871
1279 871
1280 871
1281 871
1282 871
1189 872
1190 872
1191 872
1192 872
1193 872
1194 872
1195 872
1196 872
1197 872
1198 872
1199 872
1200 872
1201 872
1202 872
1203 872
1204 872
1205 872
1206 872
1207 872
1208 872
1209 872
1210 872
1211 872
1212 872
1213 872
1214 872
1215 872
1216 872
1217 872
1218 872
1219 872
1220 872
1221 872
1222 872
1223 872
1224 872
1225 872
1226 872
1227 872
1228 872
1229 872
1230 872
1231 872
1232 872
1233 872
1234 872
1235 872
1236 872
1237 872
1238 872
1239 872
1240 872
1241 872
1242 872
1243 872
1244 872
1245 872
1246 872
1247 872
1248 872
1249 872
1250 872
1251 872
1252 872
1253 872
1254 872
1255 872
1256 872
1257 872
1258 872
1259 872
1260 872
1261 872
1262 872
1263 872
1264 872
1265 872
1266 872
1267 872
1268 872
1269 872
1270 872
1271 872
1272 872
1273 872
1274 872
1275 872
1276 872
1277 872
1278 872
1279 872
1280 872
1281 872
1282 872
1189 873
1190 873
1191 873
1192 873
1193 873
1194 873
1195 873
1196 873
1197 873
1198 873
1199 873
1200 873
1201 873
1202 873
1203 873
1204 873
1205 873
1206 873
1207 873
1208 873
1209 873
1210 873
1211 873
1212 873
1213 873
1214 873
1215 873
1216 873
1217 873
1218 873
1219 873
1220 873
1221 873
1222 873
1223 873
1224 873
1225 873
1226 873
1227 873
1228 873
1229 873
1230 873
1231 873
1232 873
1233 873
1234 873
1235 873
1236 873
1237 873
1238 873
1239 873
1240 873
1241 873
1242 873
1243 873
1244 873
1245 873
1246 873
1247 873
1248 873
1249 873
1250 873
1251 873
1252 873
1253 873
1254 873
1255 873
1256 873
1257 873
1258 873
1259 873
1260 873
1261 873
1262 873
1263 873
1264 873
1265 873
1266 873
1267 873
1268 873
1269 873
1270 873
1271 873
1272 873
1273 873
1274 873
1275 873
1276 873
1277 873
1278 873
1279 873
1280 873
1281 873
1282 873
1189 874
1190 874
1191 874
1192 874
1193 874
1194 874
1195 874
1196 874
1197 874
1198 874
1199 874
1200 874
1201 874
1202 874
1203 874
1204 874
1205 874
1206 874
1207 874
1208 874
1209 874
1210 874
1211 874
1212 874
1213 874
1214 874
1215 874
1216 874
1217 874
1218 874
1219 874
1220 874
1221 874
1222 874
1223 874
1224 874
1225 874
1226 874
1227 874
1228 874
1229 874
1230 874
1231 874
1232 874
1233 874
1234 874
1235 874
1236 874
1237 874
1238 874
1239 874
1240 874
1241 874
1242 874
1243 874
1244 874
1245 874
1246 874
1247 874
1248 874
1249 874
1250 874
1251 874
1252 874
1253 874
1254 874
1255 874
1256 874
1257 874
1258 874
1259 874
1260 874
1261 874
1262 874
1263 874
1264 874
1265 874
1266 874
1267 874
1268 874
1269 874
1270 874
1271 874
1272 874
1273 874
1274 874
1275 874
1276 874
1277 874
1278 874
1279 874
1280 874
1281 874
1282 874
1287 943
1288 943
1289 943
1290 943
1291 943
1292 943
1293 943
1294 943
1295 943
1296 943
1297 943
1298 943
1299 943
1300 943
1301 943
1302 943
1303 943
1304 943
1305 943
1306 943
1307 943
1308 943
1309 943
1310 943
1311 943
1312 943
1313 943
1314 943
1315 943
1316 943
1317 943
1318 943
1319 943
1320 943
1321 943
1322 943
1323 943
1324 943
1325 943
1326 943
1327 943
1328 943
1329 943
1330 943
1331 943
1332 943
1333 943
1334 943
1335 943
1336 943
1337 943
1338 943
1339 943
1340 943
1341 943
1342 943
1343 943
1344 943
1345 943
1346 943
1347 943
1348 943
1349 943
1350 943
1351 943
1352 943
1353 943
1354 943
1355 943
1356 943
1357 943
1358 943
1359 943
1360 943
1361 943
1362 943
1363 943
1364 943
1365 943
1366 943
1367 943
1368 943
1369 943
1370 943
1371 943
1372 943
1373 943
1374 943
1375 943
1376 943
1377 943
1378 943
1379 943
1380 943
1287 944
1288 944
1289 944
1290 944
1291 944
1292 944
1293 944
1294 944
1295 944
1296 944
1297 944
1298 944
1299 944
1300 944
1301 944
1302 944
1303 944
1304 944
1305 944
1306 944
1307 944
1308 944
1309 944
1310 944
1311 944
1312 944
1313 944
1314 944
1315 944
1316 944
1317 944
1318 944
1319 944
1320 944
1321 944
1322 944
1323 944
1324 944
1325 944
1326 944
1327 944
1328 944
1329 944
1330 944
1331 944
1332 944
1333 944
1334 944
1335 944
1336 944
1337 944
1338 944
1339 944
1340 944
1341 944
1342 944
1343 944
1344 944
1345 944
1346 944
1347 944
1348 944
1349 944
1350 944
1351 944
1352 944
1353 944
1354 944
1355 944
1356 944
1357 944
1358 944
1359 944
1360 944
1361 944
1362 944
1363 944
1364 944
1365 944
1366 944
1367 944
1368 944
1369 944
1370 944
1371 944
1372 944
1373 944
1374 944
1375 944
1376 944
1377 944
1378 944
1379 944
1380 944
1287 945
1288 945
1289 945
1290 945
1291 945
1292 945
1293 945
1294 945
1295 945
1296 945
1297 945
1298 945
1299 945
1300 945
1301 945
1302 945
1303 945
1304 945
1305 945
1306 945
1307 945
1308 945
1309 945
1310 945
1311 945
1312 945
1313 945
1314 945
1315 945
1316 945
1317 945
1318 945
1319 945
1320 945
1321 945
1322 945
1323 945
1324 945
1325 945
1326 945
1327 945
1328 945
1329 945
1330 945
1331 945
1332 945
1333 945
1334 945
1335 945
1336 945
1337 945
1338 945
1339 945
1340 945
1341 945
1342 945
1343 945
1344 945
1345 945
1346 945
1347 945
1348 945
1349 945
1350 945
1351 945
1352 945
1353 945
1354 945
1355 945
1356 945
1357 945
1358 945
1359 945
1360 945
1361 945
1362 945
1363 945
1364 945
1365 945
1366 945
1367 945
1368 945
1369 945
1370 945
1371 945
1372 945
1373 945
1374 945
1375 945
1376 945
1377 945
1378 945
1379 945
1380 945
1287 946
1288 946
1289 946
1290 946
1291 946
1292 946
1293 946
1294 946
1295 946
1296 946
1297 946
1298 946
1299 946
1300 946
1301 946
1302 946
1303 946
1304 946
1305 946
1306 946
1307 946
1308 946
1309 946
1310 946
1311 946
1312 946
1313 946
1314 946
1315 946
1316 946
1317 946
1318 946
1319 946
1320 946
1321 946
1322 946
1323 946
1324 946
1325 946
1326 946
1327 946
1328 946
1329 946
1330 946
1331 946
1332 946
1333 946
1334 946
1335 946
1336 946
1337 946
1338 946
1339 946
1340 946
1341 946
1342 946
1343 946
1344 946
1345 946
1346 946
1347 946
1348 946
1349 946
1350 946
1351 946
1352 946
1353 946
1354 946
1355 946
1356 946
1357 946
1358 946
1359 946
1360 946
1361 946
1362 946
1363 946
1364 946
1365 946
1366 946
1367 946
1368 946
1369 946
1370 946
1371 946
1372 946
1373 946
1374 946
1375 946
1376 946
1377 946
1378 946
1379 946
1380 946
1385 1015
1386 1015
1387 1015
1388 1015
1389 1015
1390 1015
1391 1015
1392 1015
1393 1015
1394 1015
1395 1015
1396 1015
1397 1015
1398 1015
1399 1015
1400 1015
1401 1015
1402 1015
1403 1015
1404 1015
1405 1015
1406 1015
1407 1015
1408 1015
1409 1015
1410 1015
1411 1015
1412 1015
1413 1015
1414 1015
1415 1015
1416 1015
1417 1015
1418 1015
1419 1015
1420 1015
1421 1015
1422 1015
1423 1015
1424 1015
1425 1015
1426 1015
1427 1015
1428 1015
1429 1015
1430 1015
1431 1015
1432 1015
1433 1015
1434 1015
1435 1015
1436 1015
1437 1015
1438 1015
1439 1015
1440 1015
1441 1015
1442 1015
1443 1015
1444 1015
1445 1015
1446 1015
1447 1015
1448 1015
1449 1015
1450 1015
1451 1015
1452 1015
1453 1015
1454 1015
1455 1015
1456 1015
1457 1015
1458 1015
1459 1015
1460 1015
1461 1015
1462 1015
1463 1015
1464 1015
1465 1015
1466 1015
1467 1015
1468 1015
1469 1015
1470 1015
1471 1015
1472 1015
1473 1015
1474 1015
1475 1015
1476 1015
1477 1015
1478 1015
1385 1016
1386 1016
1387 1016
1388 1016
1389 1016
1390 1016
1391 1016
1392 1016
1393 1016
1394 1016
1395 1016
1396 1016
1397 1016
1398 1016
1399 1016
1400 1016
1401 1016
1402 1016
1403 1016
1404 1016
1405 1016
1406 1016
1407 1016
1408 1016
1409 1016
1410 1016
1411 1016
1412 1016
1413 1016
1414 1016
1415 1016
1416 1016
1417 1016
1418 1016
1419 1016
1420 1016
1421 1016
1422 1016
1423 1016
1424 1016
1425 1016
1426 1016
1427 1016
1428 1016
1429 1016
1430 1016
1431 1016
1432 1016
1433 1016
1434 1016
1435 1016
1436 1016
1437 1016
1438 1016
1439 1016
1440 1016
1441 1016
1442 1016
1443 1016
1444 1016
1445 1016
1446 1016
1447 1016
1448 1016
1449 1016
1450 1016
1451 1016
1452 1016
1453 1016
1454 1016
1455 1016
1456 1016
1457 1016
1458 1016
1459 1016
1460 1016
1461 1016
1462 1016
1463 1016
1464 1016
1465 1016
1466 1016
1467 1016
1468 1016
1469 1016
1470 1016
1471 1016
1472 1016
1473 1016
1474 1016
1475 1016
1476 1016
1477 1016
1478 1016
1385 1017
1386 1017
1387 1017
1388 1017
1389 1017
1390 1017
1391 1017
1392 1017
1393 1017
1394 1017
1395 1017
1396 1017
1397 1017
1398 1017
1399 1017
1400 1017
1401 1017
1402 1017
1403 1017
1404 1017
1405 1017
1406 1017
1407 1017
1408 1017
1409 1017
1410 1017
1411 1017
1412 1017
1413 1017
1414 1017
1415 1017
1416 1017
1417 1017
1418 1017
1419 1017
1420 1017
1421 1017
1422 1017
1423 1017
1424 1017
1425 1017
1426 1017
1427 1017
1428 1017
1429 1017
1430 1017
1431 1017
1432 1017
1433 1017
1434 1017
1435 1017
1436 1017
1437 1017
1438 1017
1439 1017
1440 1017
1441 1017
1442 1017
1443 1017
1444 1017
1445 1017
1446 1017
1447 1017
1448 1017
1449 1017
1450 1017
1451 1017
1452 1017
1453 1017
1454 1017
1455 1017
1456 1017
1457 1017
1458 1017
1459 1017
1460 1017
1461 1017
1462 1017
1463 1017
1464 1017
1465 1017
1466 1017
1467 1017
1468 1017
1469 1017
1470 1017
1471 1017
1472 1017
1473 1017
1474 1017
1475 1017
1476 1017
1477 1017
1478 1017
1385 1018
1386 1018
1387 1018
1388 1018
1389 1018
1390 1018
1391 1018
1392 1018
1393 1018
1394 1018
1395 1018
1396 1018
1397 1018
1398 1018
1399 1018
1400 1018
1401 1018
1402 1018
1403 1018
1404 1018
1405 1018
1406 1018
1407 1018
1408 1018
1409 1018
1410 1018
1411 1018
1412 1018
1413 1018
1414 1018
1415 1018
1416 1018
1417 1018
1418 1018
1419 1018
1420 1018
1421 1018
1422 1018
1423 1018
1424 1018
1425 1018
1426 1018
1427 1018
1428 1018
1429 1018
1430 1018
1431 1018
1432 1018
1433 1018
1434 1018
1435 1018
1436 1018
1437 1018
1438 1018
1439 1018
1440 1018
1441 1018
1442 1018
1443 1018
1444 1018
1445 1018
1446 1018
1447 1018
1448 1018
1449 1018
1450 1018
1451 1018
1452 1018
1453 1018
1454 1018
1455 1018
1456 1018
1457 1018
1458 1018
1459 1018
1460 1018
1461 1018
1462 1018
1463 1018
1464 1018
1465 1018
1466 1018
1467 1018
1468 1018
1469 1018
1470 1018
1471 1018
1472 1018
1473 1018
1474 1018
1475 1018
1476 1018
1477 1018
1478 1018
1483 1087
1484 1087
1485 1087
1486 1087
1487 1087
1488 1087
1489 1087
1490 1087
1491 1087
1492 1087
1493 1087
1494 1087
1495 1087
1496 1087
1497 1087
1498 1087
1499 1087
1500 1087
1501 1087
1502 1087
1503 1087
1504 1087
1505 1087
1506 1087
1507 1087
1508 1087
1509 1087
1510 1087
1511 1087
1512 1087
1513 1087
1514 1087
1515 1087
1516 1087
1517 1087
1518 1087
1519 1087
1520 1087
1521 1087
1522 1087
1523 1087
1524 1087
1525 1087
1526 1087
1527 1087
1528 1087
1529 1087
1530 1087
1531 1087
1532 1087
1533 1087
1534 1087
1535 1087
1536 1087
1537 1087
1538 1087
1539 1087
1540 1087
1541 1087
1542 1087
1543 1087
1544 1087
1545 1087
1546 1087
1547 1087
1548 1087
1549 1087
1550 1087
1551 1087
1552 1087
1553 1087
1554 1087
1555 1087
1556 1087
1557 1087
1558 1087
1559 1087
1560 1087
1561 1087
1562 1087
1563 1087
1564 1087
1565 1087
1566 1087
1567 1087
1568 1087
1569 1087
1570 1087
1571 1087
1572 1087
1573 1087
1574 1087
1575 1087
1576 1087
1483 1088
1484 1088
1485 1088
1486 1088
1487 1088
1488 1088
1489 1088
1490 1088
1491 1088
1492 1088
1493 1088
1494 1088
1495 1088
1496 1088
1497 1088
1498 1088
1499 1088
1500 1088
1501 1088
1502 1088
1503 1088
1504 1088
1505 1088
1506 1088
1507 1088
1508 1088
1509 1088
1510 1088
1511 1088
1512 1088
1513 1088
1514 1088
1515 1088
1516 1088
1517 1088
1518 1088
1519 1088
1520 1088
1521 1088
1522 1088
1523 1088
1524 1088
1525 1088
1526 1088
1527 1088
1528 1088
1529 1088
1530 1088
1531 1088
1532 1088
1533 1088
1534 1088
1535 1088
1536 1088
1537 1088
1538 1088
1539 1088
1540 1088
1541 1088
1542 1088
1543 1088
1544 1088
1545 1088
1546 1088
1547 1088
1548 1088
1549 1088
1550 1088
1551 1088
1552 1088
1553 1088
1554 1088
1555 1088
1556 1088
1557 1088
1558 1088
1559 1088
1560 1088
1561 1088
1562 1088
1563 1088
1564 1088
1565 1088
1566 1088
1567 1088
1568 1088
1569 1088
1570 1088
1571 1088
1572 1088
1573 1088
1574 1088
1575 1088
1576 1088
1483 1089
1484 1089
1485 1089
1486 1089
1487 1089
1488 1089
1489 1089
1490 1089
1491 1089
1492 1089
1493 1089
1494 1089
1495 1089
1496 1089
1497 1089
1498 1089
1499 1089
1500 1089
1501 1089
1502 1089
1503 1089
1504 1089
1505 1089
1506 1089
1507 1089
1508 1089
1509 1089
1510 1089
1511 1089
1512 1089
1513 1089
1514 1089
1515 1089
1516 1089
1517 1089
1518 1089
1519 1089
1520 1089
1521 1089
1522 1089
1523 1089
1524 1089
1525 1089
1526 1089
1527 1089
1528 1089
1529 1089
1530 1089
1531 1089
1532 1089
1533 1089
1534 1089
1535 1089
1536 1089
1537 1089
1538 1089
1539 1089
1540 1089
1541 1089
1542 1089
1543 1089
1544 1089
1545 1089
1546 1089
1547 1089
1548 1089
1549 1089
1550 1089
1551 1089
1552 1089
1553 1089
1554 1089
1555 1089
1556 1089
1557 1089
1558 1089
1559 1089
1560 1089
1561 1089
1562 1089
1563 1089
1564 1089
1565 1089
1566 1089
1567 1089
1568 1089
1569 1089
1570 1089
1571 1089
1572 1089
1573 1089
1574 1089
1575 1089
1576 1089
1483 1090
1484 1090
1485 1090
1486 1090
1487 1090
1488 1090
1489 1090
1490 1090
1491 1090
1492 1090
1493 1090
1494 1090
1495 1090
1496 1090
1497 1090
1498 1090
1499 1090
1500 1090
1501 1090
1502 1090
1503 1090
1504 1090
1505 1090
1506 1090
1507 1090
1508 1090
1509 1090
1510 1090
1511 1090
1512 1090
1513 1090
1514 1090
1515 1090
1516 1090
1517 1090
1518 1090
1519 1090
1520 1090
1521 1090
1522 1090
1523 1090
1524 1090
1525 1090
1526 1090
1527 1090
1528 1090
1529 1090
1530 1090
1531 1090
1532 1090
1533 1090
1534 1090
1535 1090
1536 1090
1537 1090
1538 1090
1539 1090
1540 1090
1541 1090
1542 1090
1543 1090
1544 1090
1545 1090
1546 1090
1547 1090
1548 1090
1549 1090
1550 1090
1551 1090
1552 1090
1553 1090
1554 1090
1555 1090
1556 1090
1557 1090
1558 1090
1559 1090
1560 1090
1561 1090
1562 1090
1563 1090
1564 1090
1565 1090
1566 1090
1567 1090
1568 1090
1569 1090
1570 1090
1571 1090
1572 1090
1573 1090
1574 1090
1575 1090
1576 1090
1581 1159
1582 1159
1583 1159
1584 1159
1585 1159
1586 1159
1587 1159
1588 1159
1589 1159
1590 1159
1591 1159
1592 1159
1593 1159
1594 1159
1595 1159
1596 1159
1597 1159
1598 1159
1599 1159
1600 1159
1601 1159
1602 1159
1603 1159
1604 1159
1605 1159
1606 1159
1607 1159
1608 1159
1609 1159
1610 1159
1611 1159
1612 1159
1613 1159
1614 1159
1615 1159
1616 1159
1617 1159
1618 1159
1619 1159
1620 1159
1621 1159
1622 1159
1623 1159
1624 1159
1625 1159
1626 1159
1627 1159
1628 1159
1629 1159
1630 1159
1631 1159
1632 1159
1633 1159
1634 1159
1635 1159
1636 1159
1637 1159
1638 1159
1639 1159
1640 1159
1641 1159
1642 1159
1643 1159
1644 1159
1645 1159
1646 1159
1647 1159
1648 1159
1649 1159
1650 1159
1651 1159
1652 1159
1653 1159
1654 1159
1655 1159
1656 1159
1657 1159
1658 1159
1659 1159
1660 1159
1661 1159
1662 1159
1663 1159
1664 1159
1665 1159
1666 1159
1667 1159
1668 1159
1669 1159
1670 1159
1671 1159
1672 1159
1673 1159
1674 1159
1581 1160
1582 1160
1583 1160
1584 1160
1585 1160
1586 1160
1587 1160
1588 1160
1589 1160
1590 1160
1591 1160
1592 1160
1593 1160
1594 1160
1595 1160
1596 1160
1597 1160
1598 1160
1599 1160
1600 1160
1601 1160
1602 1160
1603 1160
1604 1160
1605 1160
1606 1160
1607 1160
1608 1160
1609 1160
1610 1160
1611 1160
1612 1160
1613 1160
1614 1160
1615 1160
1616 1160
1617 1160
1618 1160
1619 1160
1620 1160
1621 1160
1622 1160
1623 1160
1624 1160
1625 1160
1626 1160
1627 1160
1628 1160
1629 1160
1630 1160
1631 1160
1632 1160
1633 1160
1634 1160
1635 1160
1636 1160
1637 1160
1638 1160
1639 1160
1640 1160
1641 1160
1642 1160
1643 1160
1644 1160
1645 1160
1646 1160
1647 1160
1648 1160
1649 1160
1650 1160
1651 1160
1652 1160
1653 1160
1654 1160
1655 1160
1656 1160
1657 1160
1658 1160
1659 1160
1660 1160
1661 1160
1662 1160
1663 1160
1664 1160
1665 1160
1666 1160
1667 1160
1668 1160
1669 1160
1670 1160
1671 1160
1672 1160
1673 1160
1674 1160
1581 1161
1582 1161
1583 1161
1584 1161
1585 1161
1586 1161
1587 1161
1588 1161
1589 1161
1590 1161
1591 1161
1592 1161
1593 1161
1594 1161
1595 1161
1596 1161
1597 1161
1598 1161
1599 1161
1600 1161
1601 1161
1602 1161
1603 1161
1604 1161
1605 1161
1606 1161
1607 1161
1608 1161
1609 1161
1610 1161
1611 1161
1612 1161
1613 1161
1614 1161
1615 1161
1616 1161
1617 1161
1618 1161
1619 1161
1620 1161
1621 1161
1622 1161
1623 1161
1624 1161
1625 1161
1626 1161
1627 1161
1628 1161
1629 1161
1630 1161
1631 1161
1632 1161
1633 1161
1634 1161
1635 1161
1636 1161
1637 1161
1638 1161
1639 1161
1640 1161
1641 1161
1642 1161
1643 1161
1644 1161
1645 1161
1646 1161
1647 1161
1648 1161
1649 1161
1650 1161
1651 1161
1652 1161
1653 1161
1654 1161
1655 1161
1656 1161
1657 1161
1658 1161
1659 1161
1660 1161
1661 1161
1662 1161
1663 1161
1664 1161
1665 1161
1666 1161
1667 1161
1668 1161
1669 1161
1670 1161
1671 1161
1672 1161
1673 1161
1674 1161
1581 1162
1582 1162
1583 1162
1584 1162
1585 1162
1586 1162
1587 1162
1588 1162
1589 1162
1590 1162
1591 1162
1592 1162
1593 1162
1594 1162
1595 1162
1596 1162
1597 1162
1598 1162
1599 1162
1600 1162
1601 1162
1602 1162
1603 1162
1604 1162
1605 1162
1606 1162
1607 1162
1608 1162
1609 1162
1610 1162
1611 1162
1612 1162
1613 1162
1614 1162
1615 1162
1616 1162
1617 1162
1618 1162
1619 1162
1620 1162
1621 1162
1622 1162
1623 1162
1624 1162
1625 1162
1626 1162
1627 1162
1628 1162
1629 1162
1630 1162
1631 1162
1632 1162
1633 1162
1634 1162
1635 1162
1636 1162
1637 1162
1638 1162
1639 1162
1640 1162
1641 1162
1642 1162
1643 1162
1644 1162
1645 1162
1646 1162
1647 1162
1648 1162
1649 1162
1650 1162
1651 1162
1652 1162
1653 1162
1654 1162
1655 1162
1656 1162
1657 1162
1658 1162
1659 1162
1660 1162
1661 1162
1662 1162
1663 1162
1664 1162
1665 1162
1666 1162
1667 1162
1668 1162
1669 1162
1670 1162
1671 1162
1672 1162
1673 1162
1674 1162
1679 1231
1680 1231
1681 1231
1682 1231
1683 1231
1684 1231
1685 1231
1686 1231
1687 1231
1688 1231
1689 1231
1690 1231
1691 1231
1692 1231
1693 1231
1694 1231
1695 1231
1696 1231
1697 1231
1698 1231
1699 1231
1700 1231
1701 1231
1702 1231
1703 1231
1704 1231
1705 1231
1706 1231
1707 1231
1708 1231
1709 1231
1710 1231
1711 1231
1712 1231
1713 1231
1714 1231
1715 1231
1716 1231
1717 1231
1718 1231
1719 1231
1720 1231
1721 1231
1722 1231
1723 1231
1724 1231
1725 1231
1726 1231
1727 1231
1728 1231
1729 1231
1730 1231
1731 1231
1732 1231
1733 1231
1734 1231
1735 1231
1736 1231
1737 1231
1738 1231
1739 1231
1740 1231
1741 1231
1742 1231
1743 1231
1744 1231
1745 1231
1746 1231
1747 1231
1748 1231
1749 1231
1750 1231
1751 1231
1752 1231
1753 1231
1754 1231
1755 1231
1756 1231
1757 1231
1758 1231
1759 1231
1760 1231
1761 1231
1762 1231
1763 1231
1764 1231
1765 1231
1766 1231
1767 1231
1768 1231
1769 1231
1770 1231
1771 1231
1772 1231
1679 1232
1680 1232
1681 1232
1682 1232
1683 1232
1684 1232
1685 1232
1686 1232
1687 1232
1688 1232
1689 1232
1690 1232
1691 1232
1692 1232
1693 1232
1694 1232
1695 1232
1696 1232
1697 1232
1698 1232
1699 1232
1700 1232
1701 1232
1702 1232
1703 1232
1704 1232
1705 1232
1706 1232
1707 1232
1708 1232
1709 1232
1710 1232
1711 1232
1712 1232
1713 1232
1714 1232
1715 1232
1716 1232
1717 1232
1718 1232
1719 1232
1720 1232
1721 1232
1722 1232
1723 1232
1724 1232
1725 1232
1726 1232
1727 1232
1728 1232
1729 1232
1730 1232
1731 1232
1732 1232
1733 1232
1734 1232
1735 1232
1736 1232
1737 1232
1738 1232
1739 1232
1740 1232
1741 1232
1742 1232
1743 1232
1744 1232
1745 1232
1746 1232
1747 1232
1748 1232
1749 1232
1750 1232
1751 1232
1752 1232
1753 1232
1754 1232
1755 1232
1756 1232
1757 1232
1758 1232
1759 1232
1760 1232
1761 1232
1762 1232
1763 1232
1764 1232
1765 1232
1766 1232
1767 1232
1768 1232
1769 1232
1770 1232
1771 1232
1772 1232
1679 1233
1680 1233
1681 1233
1682 1233
1683 1233
1684 1233
1685 1233
1686 1233
1687 1233
1688 1233
1689 1233
1690 1233
1691 1233
1692 1233
1693 1233
1694 1233
1695 1233
1696 1233
1697 1233
1698 1233
1699 1233
1700 1233
1701 1233
1702 1233
1703 1233
1704 1233
1705 1233
1706 1233
1707 1233
1708 1233
1709 1233
1710 1233
1711 1233
1712 1233
1713 1233
1714 1233
1715 1233
1716 1233
1717 1233
1718 1233
1719 1233
1720 1233
1721 1233
1722 1233
1723 1233
1724 1233
1725 1233
1726 1233
1727 1233
1728 1233
1729 1233
1730 1233
1731 1233
1732 1233
1733 1233
1734 1233
1735 1233
1736 1233
1737 1233
1738 1233
1739 1233
1740 1233
1741 1233
1742 1233
1743 1233
1744 1233
1745 1233
1746 1233
1747 1233
1748 1233
1749 1233
1750 1233
1751 1233
1752 1233
1753 1233
1754 1233
1755 1233
1756 1233
1757 1233
1758 1233
1759 1233
1760 1233
1761 1233
1762 1233
1763 1233
1764 1233
1765 1233
1766 1233
1767 1233
1768 1233
1769 1233
1770 1233
1771 1233
1772 1233
1679 1234
1680 1234
1681 1234
1682 1234
1683 1234
1684 1234
1685 1234
1686 1234
1687 1234
1688 1234
1689 1234
1690 1234
1691 1234
1692 1234
1693 1234
1694 1234
1695 1234
1696 1234
1697 1234
1698 1234
1699 1234
1700 1234
1701 1234
1702 1234
1703 1234
1704 1234
1705 1234
1706 1234
1707 1234
1708 1234
1709 1234
1710 1234
1711 1234
1712 1234
1713 1234
1714 1234
1715 1234
1716 1234
1717 1234
1718 1234
1719 1234
1720 1234
1721 1234
1722 1234
1723 1234
1724 1234
1725 1234
1726 1234
1727 1234
1728 1234
1729 1234
1730 1234
1731 1234
1732 1234
1733 1234
1734 1234
1735 1234
1736 1234
1737 1234
1738 1234
1739 1234
1740 1234
1741 1234
1742 1234
1743 1234
1744 1234
1745 1234
1746 1234
1747 1234
1748 1234
1749 1234
1750 1234
1751 1234
1752 1234
1753 1234
1754 1234
1755 1234
1756 1234
1757 1234
1758 1234
1759 1234
1760 1234
1761 1234
1762 1234
1763 1234
1764 1234
1765 1234
1766 1234
1767 1234
1768 1234
1769 1234
1770 1234
1771 1234
1772 1234
1777 1303
1778 1303
1779 1303
1780 1303
1781 1303
1782 1303
1783 1303
1784 1303
1785 1303
1786 1303
1787 1303
1788 1303
1789 1303
1790 1303
1791 1303
1792 1303
1793 1303
1794 1303
1795 1303
1796 1303
1797 1303
1798 1303
1799 1303
1800 1303
1801 1303
1802 1303
1803 1303
1804 1303
1805 1303
1806 1303
1807 1303
1808 1303
1809 1303
1810 1303
1811 1303
1812 1303
1813 1303
1814 1303
1815 1303
1816 1303
1817 1303
1818 1303
1819 1303
1820 1303
1821 1303
1822 1303
1823 1303
1824 1303
1825 1303
1826 1303
1827 1303
1828 1303
1829 1303
1830 1303
1831 1303
1832 1303
1833 1303
1834 1303
1835 1303
1836 1303
1837 1303
1838 1303
1839 1303
1840 1303
1841 1303
1842 1303
1843 1303
1844 1303
1845 1303
1846 1303
1847 1303
1848 1303
1849 1303
1850 1303
1851 1303
1852 1303
1853 1303
1854 1303
1855 1303
1856 1303
1857 1303
1858 1303
1859 1303
1860 1303
1861 1303
1862 1303
1863 1303
1864 1303
1865 1303
1866 1303
1867 1303
1868 1303
1869 1303
1870 1303
1777 1304
1778 1304
1779 1304
1780 1304
1781 1304
1782 1304
1783 1304
1784 1304
1785 1304
1786 1304
1787 1304
1788 1304
1789 1304
1790 1304
1791 1304
1792 1304
1793 1304
1794 1304
1795 1304
1796 1304
1797 1304
1798 1304
1799 1304
1800 1304
1801 1304
1802 1304
1803 1304
1804 1304
1805 1304
1806 1304
1807 1304
1808 1304
1809 1304
1810 1304
1811 1304
1812 1304
1813 1304
1814 1304
1815 1304
1816 1304
1817 1304
1818 1304
1819 1304
1820 1304
1821 1304
1822 1304
1823 1304
1824 1304
1825 1304
1826 1304
1827 1304
1828 1304
1829 1304
1830 1304
1831 1304
1832 1304
1833 1304
1834 1304
1835 1304
1836 1304
1837 1304
1838 1304
1839 1304
1840 1304
1841 1304
1842 1304
1843 1304
1844 1304
1845 1304
1846 1304
1847 1304
1848 1304
1849 1304
1850 1304
1851 1304
1852 1304
1853 1304
1854 1304
1855 1304
1856 1304
1857 1304
1858 1304
1859 1304
1860 1304
1861 1304
1862 1304
1863 1304
1864 1304
1865 1304
1866 1304
1867 1304
1868 1304
1869 1304
1870 1304
1777 1305
1778 1305
1779 1305
1780 1305
1781 1305
1782 1305
1783 1305
1784 1305
1785 1305
1786 1305
1787 1305
1788 1305
1789 1305
1790 1305
1791 1305
1792 1305
1793 1305
1794 1305
1795 1305
1796 1305
1797 1305
1798 1305
1799 1305
1800 1305
1801 1305
1802 1305
1803 1305
1804 1305
1805 1305
1806 1305
1807 1305
1808 1305
1809 1305
1810 1305
1811 1305
1812 1305
1813 1305
1814 1305
1815 1305
1816 1305
1817 1305
1818 1305
1819 1305
1820 1305
1821 1305
1822 1305
1823 1305
1824 1305
1825 1305
1826 1305
1827 1305
1828 1305
1829 1305
1830 1305
1831 1305
1832 1305
1833 1305
1834 1305
1835 1305
1836 1305
1837 1305
1838 1305
1839 1305
1840 1305
1841 1305
1842 1305
1843 1305
1844 1305
1845 1305
1846 1305
1847 1305
1848 1305
1849 1305
1850 1305
1851 1305
1852 1305
1853 1305
1854 1305
1855 1305
1856 1305
1857 1305
1858 1305
1859 1305
1860 1305
1861 1305
1862 1305
1863 1305
1864 1305
1865 1305
1866 1305
1867 1305
1868 1305
1869 1305
1870 1305
1777 1306
1778 1306
1779 1306
1780 1306
1781 1306
1782 1306
1783 1306
1784 1306
1785 1306
1786 1306
1787 1306
1788 1306
1789 1306
1790 1306
1791 1306
1792 1306
1793 1306
1794 1306
1795 1306
1796 1306
1797 1306
1798 1306
1799 1306
1800 1306
1801 1306
1802 1306
1803 1306
1804 1306
1805 1306
1806 1306
1807 1306
1808 1306
1809 1306
1810 1306
1811 1306
1812 1306
1813 1306
1814 1306
1815 1306
1816 1306
1817 1306
1818 1306
1819 1306
1820 1306
1821 1306
1822 1306
1823 1306
1824 1306
1825 1306
1826 1306
1827 1306
1828 1306
1829 1306
1830 1306
1831 1306
1832 1306
1833 1306
1834 1306
1835 1306
1836 1306
1837 1306
1838 1306
1839 1306
1840 1306
1841 1306
1842 1306
1843 1306
1844 1306
1845 1306
1846 1306
1847 1306
1848 1306
1849 1306
1850 1306
1851 1306
1852 1306
1853 1306
1854 1306
1855 1306
1856 1306
1857 1306
1858 1306
1859 1306
1860 1306
1861 1306
1862 1306
1863 1306
1864 1306
1865 1306
1866 1306
1867 1306
1868 1306
1869 1306
1870 1306
1875 1375
1876 1375
1877 1375
1878 1375
1875 1376
1876 1376
1877 1376
1878 1376
1875 1377
1876 1377
1877 1377
1878 1377
1875 1378
1876 1378
1877 1378
1878 1378
1883 1381
1884 1381
1885 1381
1886 1381
1883 1382
1884 1382
1885 1382
1886 1382
1883 1383
1884 1383
1885 1383
1886 1383
1883 1384
1884 1384
1885 1384
1886 1384
1891 1387
1892 1387
1893 1387
1894 1387
1891 1388
1892 1388
1893 1388
1894 1388
1891 1389
1892 1389
1893 1389
1894 1389
1891 1390
1892 1390
1893 1390
1894 1390
1899 1393
1900 1393
1901 1393
1902 1393
1899 1394
1900 1394
1901 1394
1902 1394
1899 1395
1900 1395
1901 1395
1902 1395
1899 1396
1900 1396
1901 1396
1902 1396
1907 1399
1908 1399
1909 1399
1910 1399
1907 1400
1908 1400
1909 1400
1910 1400
1907 1401
1908 1401
1909 1401
1910 1401
1907 1402
1908 1402
1909 1402
1910 1402
1915 1405
1916 1405
1917 1405
1918 1405
1915 1406
1916 1406
1917 1406
1918 1406
1915 1407
1916 1407
1917 1407
1918 1407
1915 1408
1916 1408
1917 1408
1918 1408
1923 1411
1924 1411
1925 1411
1926 1411
1923 1412
1924 1412
1925 1412
1926 1412
1923 1413
1924 1413
1925 1413
1926 1413
1923 1414
1924 1414
1925 1414
1926 1414
1931 1417
1932 1417
1933 1417
1934 1417
1931 1418
1932 1418
1933 1418
1934 1418
1931 1419
1932 1419
1933 1419
1934 1419
1931 1420
1932 1420
1933 1420
1934 1420
1939 1423
1940 1423
1941 1423
1942 1423
1939 1424
1940 1424
1941 1424
1942 1424
1939 1425
1940 1425
1941 1425
1942 1425
1939 1426
1940 1426
1941 1426
1942 1426
1947 1429
1948 1429
1949 1429
1950 1429
1947 1430
1948 1430
1949 1430
1950 1430
1947 1431
1948 1431
1949 1431
1950 1431
1947 1432
1948 1432
1949 1432
1950 1432
