%%MatrixMarket matrix coordinate pattern general
1950 1438 6042
1 1
5 1
2 2
6 2
1 3
2 3
3 3
4 3
7 3
1 4
2 4
4 4
8 4
3 5
4 6
1 7
9 7
27 7
42 7
57 7
72 7
87 7
102 7
2 8
10 8
27 8
42 8
57 8
72 8
87 8
102 8
3 9
9 9
10 9
11 9
12 9
4 10
9 10
10 10
12 10
28 10
29 10
43 10
44 10
58 10
59 10
73 10
74 10
88 10
89 10
103 10
104 10
17 11
27 11
28 11
29 11
30 11
18 12
27 12
28 12
29 12
30 12
19 13
27 13
28 13
29 13
30 13
20 14
27 14
28 14
29 14
30 14
21 15
27 15
28 15
29 15
30 15
22 16
27 16
28 16
29 16
30 16
23 17
27 17
28 17
24 18
27 18
29 18
25 19
27 19
28 19
26 20
27 20
29 20
27 21
31 21
32 22
42 22
43 22
44 22
45 22
33 23
42 23
43 23
44 23
45 23
34 24
42 24
43 24
44 24
45 24
35 25
42 25
43 25
44 25
45 25
36 26
42 26
43 26
44 26
45 26
37 27
42 27
43 27
44 27
45 27
38 28
42 28
43 28
39 29
42 29
44 29
40 30
42 30
43 30
41 31
42 31
44 31
42 32
46 32
47 33
57 33
58 33
59 33
60 33
48 34
57 34
58 34
59 34
60 34
49 35
57 35
58 35
59 35
60 35
50 36
57 36
58 36
59 36
60 36
51 37
57 37
58 37
59 37
60 37
52 38
57 38
58 38
59 38
60 38
53 39
57 39
58 39
54 40
57 40
59 40
55 41
57 41
58 41
56 42
57 42
59 42
57 43
61 43
62 44
72 44
73 44
74 44
75 44
63 45
72 45
73 45
74 45
75 45
64 46
72 46
73 46
74 46
75 46
65 47
72 47
73 47
74 47
75 47
66 48
72 48
73 48
74 48
75 48
67 49
72 49
73 49
74 49
75 49
68 50
72 50
73 50
69 51
72 51
74 51
70 52
72 52
73 52
71 53
72 53
74 53
72 54
76 54
77 55
87 55
88 55
89 55
90 55
78 56
87 56
88 56
89 56
90 56
79 57
87 57
88 57
89 57
90 57
80 58
87 58
88 58
89 58
90 58
81 59
87 59
88 59
89 59
90 59
82 60
87 60
88 60
89 60
90 60
83 61
87 61
88 61
84 62
87 62
89 62
85 63
87 63
88 63
86 64
87 64
89 64
87 65
91 65
92 66
102 66
103 66
104 66
105 66
93 67
102 67
103 67
104 67
105 67
94 68
102 68
103 68
104 68
105 68
95 69
102 69
103 69
104 69
105 69
96 70
102 70
103 70
104 70
105 70
97 71
102 71
103 71
104 71
105 71
98 72
102 72
103 72
99 73
102 73
104 73
100 74
102 74
103 74
101 75
102 75
104 75
102 76
106 76
11 77
13 77
14 77
12 78
15 78
16 78
9 79
107 79
125 79
140 79
155 79
170 79
185 79
200 79
10 80
108 80
125 80
140 80
155 80
170 80
185 80
200 80
11 81
107 81
108 81
109 81
110 81
12 82
107 82
108 82
110 82
126 82
127 82
141 82
142 82
156 82
157 82
171 82
172 82
186 82
187 82
201 82
202 82
115 83
125 83
126 83
127 83
128 83
116 84
125 84
126 84
127 84
128 84
117 85
125 85
126 85
127 85
128 85
118 86
125 86
126 86
127 86
128 86
119 87
125 87
126 87
127 87
128 87
120 88
125 88
126 88
127 88
128 88
121 89
125 89
126 89
122 90
125 90
127 90
123 91
125 91
126 91
124 92
125 92
127 92
125 93
129 93
130 94
140 94
141 94
142 94
143 94
131 95
140 95
141 95
142 95
143 95
132 96
140 96
141 96
142 96
143 96
133 97
140 97
141 97
142 97
143 97
134 98
140 98
141 98
142 98
143 98
135 99
140 99
141 99
142 99
143 99
136 100
140 100
141 100
137 101
140 101
142 101
138 102
140 102
141 102
139 103
140 103
142 103
140 104
144 104
145 105
155 105
156 105
157 105
158 105
146 106
155 106
156 106
157 106
158 106
147 107
155 107
156 107
157 107
158 107
148 108
155 108
156 108
157 108
158 108
149 109
155 109
156 109
157 109
158 109
150 110
155 110
156 110
157 110
158 110
151 111
155 111
156 111
152 112
155 112
157 112
153 113
155 113
156 113
154 114
155 114
157 114
155 115
159 115
160 116
170 116
171 116
172 116
173 116
161 117
170 117
171 117
172 117
173 117
162 118
170 118
171 118
172 118
173 118
163 119
170 119
171 119
172 119
173 119
164 120
170 120
171 120
172 120
173 120
165 121
170 121
171 121
172 121
173 121
166 122
170 122
171 122
167 123
170 123
172 123
168 124
170 124
171 124
169 125
170 125
172 125
170 126
174 126
175 127
185 127
186 127
187 127
188 127
176 128
185 128
186 128
187 128
188 128
177 129
185 129
186 129
187 129
188 129
178 130
185 130
186 130
187 130
188 130
179 131
185 131
186 131
187 131
188 131
180 132
185 132
186 132
187 132
188 132
181 133
185 133
186 133
182 134
185 134
187 134
183 135
185 135
186 135
184 136
185 136
187 136
185 137
189 137
190 138
200 138
201 138
202 138
203 138
191 139
200 139
201 139
202 139
203 139
192 140
200 140
201 140
202 140
203 140
193 141
200 141
201 141
202 141
203 141
194 142
200 142
201 142
202 142
203 142
195 143
200 143
201 143
202 143
203 143
196 144
200 144
201 144
197 145
200 145
202 145
198 146
200 146
201 146
199 147
200 147
202 147
200 148
204 148
109 149
111 149
112 149
110 150
113 150
114 150
107 151
205 151
223 151
238 151
253 151
268 151
283 151
298 151
108 152
206 152
223 152
238 152
253 152
268 152
283 152
298 152
109 153
205 153
206 153
207 153
208 153
110 154
205 154
206 154
208 154
224 154
225 154
239 154
240 154
254 154
255 154
269 154
270 154
284 154
285 154
299 154
300 154
213 155
223 155
224 155
225 155
226 155
214 156
223 156
224 156
225 156
226 156
215 157
223 157
224 157
225 157
226 157
216 158
223 158
224 158
225 158
226 158
217 159
223 159
224 159
225 159
226 159
218 160
223 160
224 160
225 160
226 160
219 161
223 161
224 161
220 162
223 162
225 162
221 163
223 163
224 163
222 164
223 164
225 164
223 165
227 165
228 166
238 166
239 166
240 166
241 166
229 167
238 167
239 167
240 167
241 167
230 168
238 168
239 168
240 168
241 168
231 169
238 169
239 169
240 169
241 169
232 170
238 170
239 170
240 170
241 170
233 171
238 171
239 171
240 171
241 171
234 172
238 172
239 172
235 173
238 173
240 173
236 174
238 174
239 174
237 175
238 175
240 175
238 176
242 176
243 177
253 177
254 177
255 177
256 177
244 178
253 178
254 178
255 178
256 178
245 179
253 179
254 179
255 179
256 179
246 180
253 180
254 180
255 180
256 180
247 181
253 181
254 181
255 181
256 181
248 182
253 182
254 182
255 182
256 182
249 183
253 183
254 183
250 184
253 184
255 184
251 185
253 185
254 185
252 186
253 186
255 186
253 187
257 187
258 188
268 188
269 188
270 188
271 188
259 189
268 189
269 189
270 189
271 189
260 190
268 190
269 190
270 190
271 190
261 191
268 191
269 191
270 191
271 191
262 192
268 192
269 192
270 192
271 192
263 193
268 193
269 193
270 193
271 193
264 194
268 194
269 194
265 195
268 195
270 195
266 196
268 196
269 196
267 197
268 197
270 197
268 198
272 198
273 199
283 199
284 199
285 199
286 199
274 200
283 200
284 200
285 200
286 200
275 201
283 201
284 201
285 201
286 201
276 202
283 202
284 202
285 202
286 202
277 203
283 203
284 203
285 203
286 203
278 204
283 204
284 204
285 204
286 204
279 205
283 205
284 205
280 206
283 206
285 206
281 207
283 207
284 207
282 208
283 208
285 208
283 209
287 209
288 210
298 210
299 210
300 210
301 210
289 211
298 211
299 211
300 211
301 211
290 212
298 212
299 212
300 212
301 212
291 213
298 213
299 213
300 213
301 213
292 214
298 214
299 214
300 214
301 214
293 215
298 215
299 215
300 215
301 215
294 216
298 216
299 216
295 217
298 217
300 217
296 218
298 218
299 218
297 219
298 219
300 219
298 220
302 220
207 221
209 221
210 221
208 222
211 222
212 222
205 223
303 223
321 223
336 223
351 223
366 223
381 223
396 223
206 224
304 224
321 224
336 224
351 224
366 224
381 224
396 224
207 225
303 225
304 225
305 225
306 225
208 226
303 226
304 226
306 226
322 226
323 226
337 226
338 226
352 226
353 226
367 226
368 226
382 226
383 226
397 226
398 226
311 227
321 227
322 227
323 227
324 227
312 228
321 228
322 228
323 228
324 228
313 229
321 229
322 229
323 229
324 229
314 230
321 230
322 230
323 230
324 230
315 231
321 231
322 231
323 231
324 231
316 232
321 232
322 232
323 232
324 232
317 233
321 233
322 233
318 234
321 234
323 234
319 235
321 235
322 235
320 236
321 236
323 236
321 237
325 237
326 238
336 238
337 238
338 238
339 238
327 239
336 239
337 239
338 239
339 239
328 240
336 240
337 240
338 240
339 240
329 241
336 241
337 241
338 241
339 241
330 242
336 242
337 242
338 242
339 242
331 243
336 243
337 243
338 243
339 243
332 244
336 244
337 244
333 245
336 245
338 245
334 246
336 246
337 246
335 247
336 247
338 247
336 248
340 248
341 249
351 249
352 249
353 249
354 249
342 250
351 250
352 250
353 250
354 250
343 251
351 251
352 251
353 251
354 251
344 252
351 252
352 252
353 252
354 252
345 253
351 253
352 253
353 253
354 253
346 254
351 254
352 254
353 254
354 254
347 255
351 255
352 255
348 256
351 256
353 256
349 257
351 257
352 257
350 258
351 258
353 258
351 259
355 259
356 260
366 260
367 260
368 260
369 260
357 261
366 261
367 261
368 261
369 261
358 262
366 262
367 262
368 262
369 262
359 263
366 263
367 263
368 263
369 263
360 264
366 264
367 264
368 264
369 264
361 265
366 265
367 265
368 265
369 265
362 266
366 266
367 266
363 267
366 267
368 267
364 268
366 268
367 268
365 269
366 269
368 269
366 270
370 270
371 271
381 271
382 271
383 271
384 271
372 272
381 272
382 272
383 272
384 272
373 273
381 273
382 273
383 273
384 273
374 274
381 274
382 274
383 274
384 274
375 275
381 275
382 275
383 275
384 275
376 276
381 276
382 276
383 276
384 276
377 277
381 277
382 277
378 278
381 278
383 278
379 279
381 279
382 279
380 280
381 280
383 280
381 281
385 281
386 282
396 282
397 282
398 282
399 282
387 283
396 283
397 283
398 283
399 283
388 284
396 284
397 284
398 284
399 284
389 285
396 285
397 285
398 285
399 285
390 286
396 286
397 286
398 286
399 286
391 287
396 287
397 287
398 287
399 287
392 288
396 288
397 288
393 289
396 289
398 289
394 290
396 290
397 290
395 291
396 291
398 291
396 292
400 292
305 293
307 293
308 293
306 294
309 294
310 294
303 295
401 295
419 295
434 295
449 295
464 295
479 295
494 295
304 296
402 296
419 296
434 296
449 296
464 296
479 296
494 296
305 297
401 297
402 297
403 297
404 297
306 298
401 298
402 298
404 298
420 298
421 298
435 298
436 298
450 298
451 298
465 298
466 298
480 298
481 298
495 298
496 298
409 299
419 299
420 299
421 299
422 299
410 300
419 300
420 300
421 300
422 300
411 301
419 301
420 301
421 301
422 301
412 302
419 302
420 302
421 302
422 302
413 303
419 303
420 303
421 303
422 303
414 304
419 304
420 304
421 304
422 304
415 305
419 305
420 305
416 306
419 306
421 306
417 307
419 307
420 307
418 308
419 308
421 308
419 309
423 309
424 310
434 310
435 310
436 310
437 310
425 311
434 311
435 311
436 311
437 311
426 312
434 312
435 312
436 312
437 312
427 313
434 313
435 313
436 313
437 313
428 314
434 314
435 314
436 314
437 314
429 315
434 315
435 315
436 315
437 315
430 316
434 316
435 316
431 317
434 317
436 317
432 318
434 318
435 318
433 319
434 319
436 319
434 320
438 320
439 321
449 321
450 321
451 321
452 321
440 322
449 322
450 322
451 322
452 322
441 323
449 323
450 323
451 323
452 323
442 324
449 324
450 324
451 324
452 324
443 325
449 325
450 325
451 325
452 325
444 326
449 326
450 326
451 326
452 326
445 327
449 327
450 327
446 328
449 328
451 328
447 329
449 329
450 329
448 330
449 330
451 330
449 331
453 331
454 332
464 332
465 332
466 332
467 332
455 333
464 333
465 333
466 333
467 333
456 334
464 334
465 334
466 334
467 334
457 335
464 335
465 335
466 335
467 335
458 336
464 336
465 336
466 336
467 336
459 337
464 337
465 337
466 337
467 337
460 338
464 338
465 338
461 339
464 339
466 339
462 340
464 340
465 340
463 341
464 341
466 341
464 342
468 342
469 343
479 343
480 343
481 343
482 343
470 344
479 344
480 344
481 344
482 344
471 345
479 345
480 345
481 345
482 345
472 346
479 346
480 346
481 346
482 346
473 347
479 347
480 347
481 347
482 347
474 348
479 348
480 348
481 348
482 348
475 349
479 349
480 349
476 350
479 350
481 350
477 351
479 351
480 351
478 352
479 352
481 352
479 353
483 353
484 354
494 354
495 354
496 354
497 354
485 355
494 355
495 355
496 355
497 355
486 356
494 356
495 356
496 356
497 356
487 357
494 357
495 357
496 357
497 357
488 358
494 358
495 358
496 358
497 358
489 359
494 359
495 359
496 359
497 359
490 360
494 360
495 360
491 361
494 361
496 361
492 362
494 362
495 362
493 363
494 363
496 363
494 364
498 364
403 365
405 365
406 365
404 366
407 366
408 366
401 367
499 367
517 367
532 367
547 367
562 367
577 367
592 367
402 368
500 368
517 368
532 368
547 368
562 368
577 368
592 368
403 369
499 369
500 369
501 369
502 369
404 370
499 370
500 370
502 370
518 370
519 370
533 370
534 370
548 370
549 370
563 370
564 370
578 370
579 370
593 370
594 370
507 371
517 371
518 371
519 371
520 371
508 372
517 372
518 372
519 372
520 372
509 373
517 373
518 373
519 373
520 373
510 374
517 374
518 374
519 374
520 374
511 375
517 375
518 375
519 375
520 375
512 376
517 376
518 376
519 376
520 376
513 377
517 377
518 377
514 378
517 378
519 378
515 379
517 379
518 379
516 380
517 380
519 380
517 381
521 381
522 382
532 382
533 382
534 382
535 382
523 383
532 383
533 383
534 383
535 383
524 384
532 384
533 384
534 384
535 384
525 385
532 385
533 385
534 385
535 385
526 386
532 386
533 386
534 386
535 386
527 387
532 387
533 387
534 387
535 387
528 388
532 388
533 388
529 389
532 389
534 389
530 390
532 390
533 390
531 391
532 391
534 391
532 392
536 392
537 393
547 393
548 393
549 393
550 393
538 394
547 394
548 394
549 394
550 394
539 395
547 395
548 395
549 395
550 395
540 396
547 396
548 396
549 396
550 396
541 397
547 397
548 397
549 397
550 397
542 398
547 398
548 398
549 398
550 398
543 399
547 399
548 399
544 400
547 400
549 400
545 401
547 401
548 401
546 402
547 402
549 402
547 403
551 403
552 404
562 404
563 404
564 404
565 404
553 405
562 405
563 405
564 405
565 405
554 406
562 406
563 406
564 406
565 406
555 407
562 407
563 407
564 407
565 407
556 408
562 408
563 408
564 408
565 408
557 409
562 409
563 409
564 409
565 409
558 410
562 410
563 410
559 411
562 411
564 411
560 412
562 412
563 412
561 413
562 413
564 413
562 414
566 414
567 415
577 415
578 415
579 415
580 415
568 416
577 416
578 416
579 416
580 416
569 417
577 417
578 417
579 417
580 417
570 418
577 418
578 418
579 418
580 418
571 419
577 419
578 419
579 419
580 419
572 420
577 420
578 420
579 420
580 420
573 421
577 421
578 421
574 422
577 422
579 422
575 423
577 423
578 423
576 424
577 424
579 424
577 425
581 425
582 426
592 426
593 426
594 426
595 426
583 427
592 427
593 427
594 427
595 427
584 428
592 428
593 428
594 428
595 428
585 429
592 429
593 429
594 429
595 429
586 430
592 430
593 430
594 430
595 430
587 431
592 431
593 431
594 431
595 431
588 432
592 432
593 432
589 433
592 433
594 433
590 434
592 434
593 434
591 435
592 435
594 435
592 436
596 436
501 437
503 437
504 437
502 438
505 438
506 438
499 439
597 439
615 439
630 439
645 439
660 439
675 439
690 439
500 440
598 440
615 440
630 440
645 440
660 440
675 440
690 440
501 441
597 441
598 441
599 441
600 441
502 442
597 442
598 442
600 442
616 442
617 442
631 442
632 442
646 442
647 442
661 442
662 442
676 442
677 442
691 442
692 442
605 443
615 443
616 443
617 443
618 443
606 444
615 444
616 444
617 444
618 444
607 445
615 445
616 445
617 445
618 445
608 446
615 446
616 446
617 446
618 446
609 447
615 447
616 447
617 447
618 447
610 448
615 448
616 448
617 448
618 448
611 449
615 449
616 449
612 450
615 450
617 450
613 451
615 451
616 451
614 452
615 452
617 452
615 453
619 453
620 454
630 454
631 454
632 454
633 454
621 455
630 455
631 455
632 455
633 455
622 456
630 456
631 456
632 456
633 456
623 457
630 457
631 457
632 457
633 457
624 458
630 458
631 458
632 458
633 458
625 459
630 459
631 459
632 459
633 459
626 460
630 460
631 460
627 461
630 461
632 461
628 462
630 462
631 462
629 463
630 463
632 463
630 464
634 464
635 465
645 465
646 465
647 465
648 465
636 466
645 466
646 466
647 466
648 466
637 467
645 467
646 467
647 467
648 467
638 468
645 468
646 468
647 468
648 468
639 469
645 469
646 469
647 469
648 469
640 470
645 470
646 470
647 470
648 470
641 471
645 471
646 471
642 472
645 472
647 472
643 473
645 473
646 473
644 474
645 474
647 474
645 475
649 475
650 476
660 476
661 476
662 476
663 476
651 477
660 477
661 477
662 477
663 477
652 478
660 478
661 478
662 478
663 478
653 479
660 479
661 479
662 479
663 479
654 480
660 480
661 480
662 480
663 480
655 481
660 481
661 481
662 481
663 481
656 482
660 482
661 482
657 483
660 483
662 483
658 484
660 484
661 484
659 485
660 485
662 485
660 486
664 486
665 487
675 487
676 487
677 487
678 487
666 488
675 488
676 488
677 488
678 488
667 489
675 489
676 489
677 489
678 489
668 490
675 490
676 490
677 490
678 490
669 491
675 491
676 491
677 491
678 491
670 492
675 492
676 492
677 492
678 492
671 493
675 493
676 493
672 494
675 494
677 494
673 495
675 495
676 495
674 496
675 496
677 496
675 497
679 497
680 498
690 498
691 498
692 498
693 498
681 499
690 499
691 499
692 499
693 499
682 500
690 500
691 500
692 500
693 500
683 501
690 501
691 501
692 501
693 501
684 502
690 502
691 502
692 502
693 502
685 503
690 503
691 503
692 503
693 503
686 504
690 504
691 504
687 505
690 505
692 505
688 506
690 506
691 506
689 507
690 507
692 507
690 508
694 508
599 509
601 509
602 509
600 510
603 510
604 510
597 511
695 511
713 511
728 511
743 511
758 511
773 511
788 511
598 512
696 512
713 512
728 512
743 512
758 512
773 512
788 512
599 513
695 513
696 513
697 513
698 513
600 514
695 514
696 514
698 514
714 514
715 514
729 514
730 514
744 514
745 514
759 514
760 514
774 514
775 514
789 514
790 514
703 515
713 515
714 515
715 515
716 515
704 516
713 516
714 516
715 516
716 516
705 517
713 517
714 517
715 517
716 517
706 518
713 518
714 518
715 518
716 518
707 519
713 519
714 519
715 519
716 519
708 520
713 520
714 520
715 520
716 520
709 521
713 521
714 521
710 522
713 522
715 522
711 523
713 523
714 523
712 524
713 524
715 524
713 525
717 525
718 526
728 526
729 526
730 526
731 526
719 527
728 527
729 527
730 527
731 527
720 528
728 528
729 528
730 528
731 528
721 529
728 529
729 529
730 529
731 529
722 530
728 530
729 530
730 530
731 530
723 531
728 531
729 531
730 531
731 531
724 532
728 532
729 532
725 533
728 533
730 533
726 534
728 534
729 534
727 535
728 535
730 535
728 536
732 536
733 537
743 537
744 537
745 537
746 537
734 538
743 538
744 538
745 538
746 538
735 539
743 539
744 539
745 539
746 539
736 540
743 540
744 540
745 540
746 540
737 541
743 541
744 541
745 541
746 541
738 542
743 542
744 542
745 542
746 542
739 543
743 543
744 543
740 544
743 544
745 544
741 545
743 545
744 545
742 546
743 546
745 546
743 547
747 547
748 548
758 548
759 548
760 548
761 548
749 549
758 549
759 549
760 549
761 549
750 550
758 550
759 550
760 550
761 550
751 551
758 551
759 551
760 551
761 551
752 552
758 552
759 552
760 552
761 552
753 553
758 553
759 553
760 553
761 553
754 554
758 554
759 554
755 555
758 555
760 555
756 556
758 556
759 556
757 557
758 557
760 557
758 558
762 558
763 559
773 559
774 559
775 559
776 559
764 560
773 560
774 560
775 560
776 560
765 561
773 561
774 561
775 561
776 561
766 562
773 562
774 562
775 562
776 562
767 563
773 563
774 563
775 563
776 563
768 564
773 564
774 564
775 564
776 564
769 565
773 565
774 565
770 566
773 566
775 566
771 567
773 567
774 567
772 568
773 568
775 568
773 569
777 569
778 570
788 570
789 570
790 570
791 570
779 571
788 571
789 571
790 571
791 571
780 572
788 572
789 572
790 572
791 572
781 573
788 573
789 573
790 573
791 573
782 574
788 574
789 574
790 574
791 574
783 575
788 575
789 575
790 575
791 575
784 576
788 576
789 576
785 577
788 577
790 577
786 578
788 578
789 578
787 579
788 579
790 579
788 580
792 580
697 581
699 581
700 581
698 582
701 582
702 582
695 583
793 583
811 583
826 583
841 583
856 583
871 583
886 583
696 584
794 584
811 584
826 584
841 584
856 584
871 584
886 584
697 585
793 585
794 585
795 585
796 585
698 586
793 586
794 586
796 586
812 586
813 586
827 586
828 586
842 586
843 586
857 586
858 586
872 586
873 586
887 586
888 586
801 587
811 587
812 587
813 587
814 587
802 588
811 588
812 588
813 588
814 588
803 589
811 589
812 589
813 589
814 589
804 590
811 590
812 590
813 590
814 590
805 591
811 591
812 591
813 591
814 591
806 592
811 592
812 592
813 592
814 592
807 593
811 593
812 593
808 594
811 594
813 594
809 595
811 595
812 595
810 596
811 596
813 596
811 597
815 597
816 598
826 598
827 598
828 598
829 598
817 599
826 599
827 599
828 599
829 599
818 600
826 600
827 600
828 600
829 600
819 601
826 601
827 601
828 601
829 601
820 602
826 602
827 602
828 602
829 602
821 603
826 603
827 603
828 603
829 603
822 604
826 604
827 604
823 605
826 605
828 605
824 606
826 606
827 606
825 607
826 607
828 607
826 608
830 608
831 609
841 609
842 609
843 609
844 609
832 610
841 610
842 610
843 610
844 610
833 611
841 611
842 611
843 611
844 611
834 612
841 612
842 612
843 612
844 612
835 613
841 613
842 613
843 613
844 613
836 614
841 614
842 614
843 614
844 614
837 615
841 615
842 615
838 616
841 616
843 616
839 617
841 617
842 617
840 618
841 618
843 618
841 619
845 619
846 620
856 620
857 620
858 620
859 620
847 621
856 621
857 621
858 621
859 621
848 622
856 622
857 622
858 622
859 622
849 623
856 623
857 623
858 623
859 623
850 624
856 624
857 624
858 624
859 624
851 625
856 625
857 625
858 625
859 625
852 626
856 626
857 626
853 627
856 627
858 627
854 628
856 628
857 628
855 629
856 629
858 629
856 630
860 630
861 631
871 631
872 631
873 631
874 631
862 632
871 632
872 632
873 632
874 632
863 633
871 633
872 633
873 633
874 633
864 634
871 634
872 634
873 634
874 634
865 635
871 635
872 635
873 635
874 635
866 636
871 636
872 636
873 636
874 636
867 637
871 637
872 637
868 638
871 638
873 638
869 639
871 639
872 639
870 640
871 640
873 640
871 641
875 641
876 642
886 642
887 642
888 642
889 642
877 643
886 643
887 643
888 643
889 643
878 644
886 644
887 644
888 644
889 644
879 645
886 645
887 645
888 645
889 645
880 646
886 646
887 646
888 646
889 646
881 647
886 647
887 647
888 647
889 647
882 648
886 648
887 648
883 649
886 649
888 649
884 650
886 650
887 650
885 651
886 651
888 651
886 652
890 652
795 653
797 653
798 653
796 654
799 654
800 654
793 655
891 655
909 655
924 655
939 655
954 655
969 655
984 655
794 656
892 656
909 656
924 656
939 656
954 656
969 656
984 656
795 657
891 657
892 657
893 657
894 657
796 658
891 658
892 658
894 658
910 658
911 658
925 658
926 658
940 658
941 658
955 658
956 658
970 658
971 658
985 658
986 658
899 659
909 659
910 659
911 659
912 659
900 660
909 660
910 660
911 660
912 660
901 661
909 661
910 661
911 661
912 661
902 662
909 662
910 662
911 662
912 662
903 663
909 663
910 663
911 663
912 663
904 664
909 664
910 664
911 664
912 664
905 665
909 665
910 665
906 666
909 666
911 666
907 667
909 667
910 667
908 668
909 668
911 668
909 669
913 669
914 670
924 670
925 670
926 670
927 670
915 671
924 671
925 671
926 671
927 671
916 672
924 672
925 672
926 672
927 672
917 673
924 673
925 673
926 673
927 673
918 674
924 674
925 674
926 674
927 674
919 675
924 675
925 675
926 675
927 675
920 676
924 676
925 676
921 677
924 677
926 677
922 678
924 678
925 678
923 679
924 679
926 679
924 680
928 680
929 681
939 681
940 681
941 681
942 681
930 682
939 682
940 682
941 682
942 682
931 683
939 683
940 683
941 683
942 683
932 684
939 684
940 684
941 684
942 684
933 685
939 685
940 685
941 685
942 685
934 686
939 686
940 686
941 686
942 686
935 687
939 687
940 687
936 688
939 688
941 688
937 689
939 689
940 689
938 690
939 690
941 690
939 691
943 691
944 692
954 692
955 692
956 692
957 692
945 693
954 693
955 693
956 693
957 693
946 694
954 694
955 694
956 694
957 694
947 695
954 695
955 695
956 695
957 695
948 696
954 696
955 696
956 696
957 696
949 697
954 697
955 697
956 697
957 697
950 698
954 698
955 698
951 699
954 699
956 699
952 700
954 700
955 700
953 701
954 701
956 701
954 702
958 702
959 703
969 703
970 703
971 703
972 703
960 704
969 704
970 704
971 704
972 704
961 705
969 705
970 705
971 705
972 705
962 706
969 706
970 706
971 706
972 706
963 707
969 707
970 707
971 707
972 707
964 708
969 708
970 708
971 708
972 708
965 709
969 709
970 709
966 710
969 710
971 710
967 711
969 711
970 711
968 712
969 712
971 712
969 713
973 713
974 714
984 714
985 714
986 714
987 714
975 715
984 715
985 715
986 715
987 715
976 716
984 716
985 716
986 716
987 716
977 717
984 717
985 717
986 717
987 717
978 718
984 718
985 718
986 718
987 718
979 719
984 719
985 719
986 719
987 719
980 720
984 720
985 720
981 721
984 721
986 721
982 722
984 722
985 722
983 723
984 723
986 723
984 724
988 724
893 725
895 725
896 725
894 726
897 726
898 726
891 727
989 727
1007 727
1022 727
1037 727
1052 727
1067 727
1082 727
892 728
990 728
1007 728
1022 728
1037 728
1052 728
1067 728
1082 728
893 729
989 729
990 729
991 729
992 729
894 730
989 730
990 730
992 730
1008 730
1009 730
1023 730
1024 730
1038 730
1039 730
1053 730
1054 730
1068 730
1069 730
1083 730
1084 730
997 731
1007 731
1008 731
1009 731
1010 731
998 732
1007 732
1008 732
1009 732
1010 732
999 733
1007 733
1008 733
1009 733
1010 733
1000 734
1007 734
1008 734
1009 734
1010 734
1001 735
1007 735
1008 735
1009 735
1010 735
1002 736
1007 736
1008 736
1009 736
1010 736
1003 737
1007 737
1008 737
1004 738
1007 738
1009 738
1005 739
1007 739
1008 739
1006 740
1007 740
1009 740
1007 741
1011 741
1012 742
1022 742
1023 742
1024 742
1025 742
1013 743
1022 743
1023 743
1024 743
1025 743
1014 744
1022 744
1023 744
1024 744
1025 744
1015 745
1022 745
1023 745
1024 745
1025 745
1016 746
1022 746
1023 746
1024 746
1025 746
1017 747
1022 747
1023 747
1024 747
1025 747
1018 748
1022 748
1023 748
1019 749
1022 749
1024 749
1020 750
1022 750
1023 750
1021 751
1022 751
1024 751
1022 752
1026 752
1027 753
1037 753
1038 753
1039 753
1040 753
1028 754
1037 754
1038 754
1039 754
1040 754
1029 755
1037 755
1038 755
1039 755
1040 755
1030 756
1037 756
1038 756
1039 756
1040 756
1031 757
1037 757
1038 757
1039 757
1040 757
1032 758
1037 758
1038 758
1039 758
1040 758
1033 759
1037 759
1038 759
1034 760
1037 760
1039 760
1035 761
1037 761
1038 761
1036 762
1037 762
1039 762
1037 763
1041 763
1042 764
1052 764
1053 764
1054 764
1055 764
1043 765
1052 765
1053 765
1054 765
1055 765
1044 766
1052 766
1053 766
1054 766
1055 766
1045 767
1052 767
1053 767
1054 767
1055 767
1046 768
1052 768
1053 768
1054 768
1055 768
1047 769
1052 769
1053 769
1054 769
1055 769
1048 770
1052 770
1053 770
1049 771
1052 771
1054 771
1050 772
1052 772
1053 772
1051 773
1052 773
1054 773
1052 774
1056 774
1057 775
1067 775
1068 775
1069 775
1070 775
1058 776
1067 776
1068 776
1069 776
1070 776
1059 777
1067 777
1068 777
1069 777
1070 777
1060 778
1067 778
1068 778
1069 778
1070 778
1061 779
1067 779
1068 779
1069 779
1070 779
1062 780
1067 780
1068 780
1069 780
1070 780
1063 781
1067 781
1068 781
1064 782
1067 782
1069 782
1065 783
1067 783
1068 783
1066 784
1067 784
1069 784
1067 785
1071 785
1072 786
1082 786
1083 786
1084 786
1085 786
1073 787
1082 787
1083 787
1084 787
1085 787
1074 788
1082 788
1083 788
1084 788
1085 788
1075 789
1082 789
1083 789
1084 789
1085 789
1076 790
1082 790
1083 790
1084 790
1085 790
1077 791
1082 791
1083 791
1084 791
1085 791
1078 792
1082 792
1083 792
1079 793
1082 793
1084 793
1080 794
1082 794
1083 794
1081 795
1082 795
1084 795
1082 796
1086 796
991 797
993 797
994 797
992 798
995 798
996 798
989 799
1087 799
1105 799
1120 799
1135 799
1150 799
1165 799
1180 799
990 800
1088 800
1105 800
1120 800
1135 800
1150 800
1165 800
1180 800
991 801
1087 801
1088 801
1089 801
1090 801
992 802
1087 802
1088 802
1090 802
1106 802
1107 802
1121 802
1122 802
1136 802
1137 802
1151 802
1152 802
1166 802
1167 802
1181 802
1182 802
1095 803
1105 803
1106 803
1107 803
1108 803
1096 804
1105 804
1106 804
1107 804
1108 804
1097 805
1105 805
1106 805
1107 805
1108 805
1098 806
1105 806
1106 806
1107 806
1108 806
1099 807
1105 807
1106 807
1107 807
1108 807
1100 808
1105 808
1106 808
1107 808
1108 808
1101 809
1105 809
1106 809
1102 810
1105 810
1107 810
1103 811
1105 811
1106 811
1104 812
1105 812
1107 812
1105 813
1109 813
1110 814
1120 814
1121 814
1122 814
1123 814
1111 815
1120 815
1121 815
1122 815
1123 815
1112 816
1120 816
1121 816
1122 816
1123 816
1113 817
1120 817
1121 817
1122 817
1123 817
1114 818
1120 818
1121 818
1122 818
1123 818
1115 819
1120 819
1121 819
1122 819
1123 819
1116 820
1120 820
1121 820
1117 821
1120 821
1122 821
1118 822
1120 822
1121 822
1119 823
1120 823
1122 823
1120 824
1124 824
1125 825
1135 825
1136 825
1137 825
1138 825
1126 826
1135 826
1136 826
1137 826
1138 826
1127 827
1135 827
1136 827
1137 827
1138 827
1128 828
1135 828
1136 828
1137 828
1138 828
1129 829
1135 829
1136 829
1137 829
1138 829
1130 830
1135 830
1136 830
1137 830
1138 830
1131 831
1135 831
1136 831
1132 832
1135 832
1137 832
1133 833
1135 833
1136 833
1134 834
1135 834
1137 834
1135 835
1139 835
1140 836
1150 836
1151 836
1152 836
1153 836
1141 837
1150 837
1151 837
1152 837
1153 837
1142 838
1150 838
1151 838
1152 838
1153 838
1143 839
1150 839
1151 839
1152 839
1153 839
1144 840
1150 840
1151 840
1152 840
1153 840
1145 841
1150 841
1151 841
1152 841
1153 841
1146 842
1150 842
1151 842
1147 843
1150 843
1152 843
1148 844
1150 844
1151 844
1149 845
1150 845
1152 845
1150 846
1154 846
1155 847
1165 847
1166 847
1167 847
1168 847
1156 848
1165 848
1166 848
1167 848
1168 848
1157 849
1165 849
1166 849
1167 849
1168 849
1158 850
1165 850
1166 850
1167 850
1168 850
1159 851
1165 851
1166 851
1167 851
1168 851
1160 852
1165 852
1166 852
1167 852
1168 852
1161 853
1165 853
1166 853
1162 854
1165 854
1167 854
1163 855
1165 855
1166 855
1164 856
1165 856
1167 856
1165 857
1169 857
1170 858
1180 858
1181 858
1182 858
1183 858
1171 859
1180 859
1181 859
1182 859
1183 859
1172 860
1180 860
1181 860
1182 860
1183 860
1173 861
1180 861
1181 861
1182 861
1183 861
1174 862
1180 862
1181 862
1182 862
1183 862
1175 863
1180 863
1181 863
1182 863
1183 863
1176 864
1180 864
1181 864
1177 865
1180 865
1182 865
1178 866
1180 866
1181 866
1179 867
1180 867
1182 867
1180 868
1184 868
1089 869
1091 869
1092 869
1090 870
1093 870
1094 870
1087 871
1185 871
1203 871
1218 871
1233 871
1248 871
1263 871
1278 871
1088 872
1186 872
1203 872
1218 872
1233 872
1248 872
1263 872
1278 872
1089 873
1185 873
1186 873
1187 873
1188 873
1090 874
1185 874
1186 874
1188 874
1204 874
1205 874
1219 874
1220 874
1234 874
1235 874
1249 874
1250 874
1264 874
1265 874
1279 874
1280 874
1193 875
1203 875
1204 875
1205 875
1206 875
1194 876
1203 876
1204 876
1205 876
1206 876
1195 877
1203 877
1204 877
1205 877
1206 877
1196 878
1203 878
1204 878
1205 878
1206 878
1197 879
1203 879
1204 879
1205 879
1206 879
1198 880
1203 880
1204 880
1205 880
1206 880
1199 881
1203 881
1204 881
1200 882
1203 882
1205 882
1201 883
1203 883
1204 883
1202 884
1203 884
1205 884
1203 885
1207 885
1208 886
1218 886
1219 886
1220 886
1221 886
1209 887
1218 887
1219 887
1220 887
1221 887
1210 888
1218 888
1219 888
1220 888
1221 888
1211 889
1218 889
1219 889
1220 889
1221 889
1212 890
1218 890
1219 890
1220 890
1221 890
1213 891
1218 891
1219 891
1220 891
1221 891
1214 892
1218 892
1219 892
1215 893
1218 893
1220 893
1216 894
1218 894
1219 894
1217 895
1218 895
1220 895
1218 896
1222 896
1223 897
1233 897
1234 897
1235 897
1236 897
1224 898
1233 898
1234 898
1235 898
1236 898
1225 899
1233 899
1234 899
1235 899
1236 899
1226 900
1233 900
1234 900
1235 900
1236 900
1227 901
1233 901
1234 901
1235 901
1236 901
1228 902
1233 902
1234 902
1235 902
1236 902
1229 903
1233 903
1234 903
1230 904
1233 904
1235 904
1231 905
1233 905
1234 905
1232 906
1233 906
1235 906
1233 907
1237 907
1238 908
1248 908
1249 908
1250 908
1251 908
1239 909
1248 909
1249 909
1250 909
1251 909
1240 910
1248 910
1249 910
1250 910
1251 910
1241 911
1248 911
1249 911
1250 911
1251 911
1242 912
1248 912
1249 912
1250 912
1251 912
1243 913
1248 913
1249 913
1250 913
1251 913
1244 914
1248 914
1249 914
1245 915
1248 915
1250 915
1246 916
1248 916
1249 916
1247 917
1248 917
1250 917
1248 918
1252 918
1253 919
1263 919
1264 919
1265 919
1266 919
1254 920
1263 920
1264 920
1265 920
1266 920
1255 921
1263 921
1264 921
1265 921
1266 921
1256 922
1263 922
1264 922
1265 922
1266 922
1257 923
1263 923
1264 923
1265 923
1266 923
1258 924
1263 924
1264 924
1265 924
1266 924
1259 925
1263 925
1264 925
1260 926
1263 926
1265 926
1261 927
1263 927
1264 927
1262 928
1263 928
1265 928
1263 929
1267 929
1268 930
1278 930
1279 930
1280 930
1281 930
1269 931
1278 931
1279 931
1280 931
1281 931
1270 932
1278 932
1279 932
1280 932
1281 932
1271 933
1278 933
1279 933
1280 933
1281 933
1272 934
1278 934
1279 934
1280 934
1281 934
1273 935
1278 935
1279 935
1280 935
1281 935
1274 936
1278 936
1279 936
1275 937
1278 937
1280 937
1276 938
1278 938
1279 938
1277 939
1278 939
1280 939
1278 940
1282 940
1187 941
1189 941
1190 941
1188 942
1191 942
1192 942
1185 943
1283 943
1301 943
1316 943
1331 943
1346 943
1361 943
1376 943
1186 944
1284 944
1301 944
1316 944
1331 944
1346 944
1361 944
1376 944
1187 945
1283 945
1284 945
1285 945
1286 945
1188 946
1283 946
1284 946
1286 946
1302 946
1303 946
1317 946
1318 946
1332 946
1333 946
1347 946
1348 946
1362 946
1363 946
1377 946
1378 946
1291 947
1301 947
1302 947
1303 947
1304 947
1292 948
1301 948
1302 948
1303 948
1304 948
1293 949
1301 949
1302 949
1303 949
1304 949
1294 950
1301 950
1302 950
1303 950
1304 950
1295 951
1301 951
1302 951
1303 951
1304 951
1296 952
1301 952
1302 952
1303 952
1304 952
1297 953
1301 953
1302 953
1298 954
1301 954
1303 954
1299 955
1301 955
1302 955
1300 956
1301 956
1303 956
1301 957
1305 957
1306 958
1316 958
1317 958
1318 958
1319 958
1307 959
1316 959
1317 959
1318 959
1319 959
1308 960
1316 960
1317 960
1318 960
1319 960
1309 961
1316 961
1317 961
1318 961
1319 961
1310 962
1316 962
1317 962
1318 962
1319 962
1311 963
1316 963
1317 963
1318 963
1319 963
1312 964
1316 964
1317 964
1313 965
1316 965
1318 965
1314 966
1316 966
1317 966
1315 967
1316 967
1318 967
1316 968
1320 968
1321 969
1331 969
1332 969
1333 969
1334 969
1322 970
1331 970
1332 970
1333 970
1334 970
1323 971
1331 971
1332 971
1333 971
1334 971
1324 972
1331 972
1332 972
1333 972
1334 972
1325 973
1331 973
1332 973
1333 973
1334 973
1326 974
1331 974
1332 974
1333 974
1334 974
1327 975
1331 975
1332 975
1328 976
1331 976
1333 976
1329 977
1331 977
1332 977
1330 978
1331 978
1333 978
1331 979
1335 979
1336 980
1346 980
1347 980
1348 980
1349 980
1337 981
1346 981
1347 981
1348 981
1349 981
1338 982
1346 982
1347 982
1348 982
1349 982
1339 983
1346 983
1347 983
1348 983
1349 983
1340 984
1346 984
1347 984
1348 984
1349 984
1341 985
1346 985
1347 985
1348 985
1349 985
1342 986
1346 986
1347 986
1343 987
1346 987
1348 987
1344 988
1346 988
1347 988
1345 989
1346 989
1348 989
1346 990
1350 990
1351 991
1361 991
1362 991
1363 991
1364 991
1352 992
1361 992
1362 992
1363 992
1364 992
1353 993
1361 993
1362 993
1363 993
1364 993
1354 994
1361 994
1362 994
1363 994
1364 994
1355 995
1361 995
1362 995
1363 995
1364 995
1356 996
1361 996
1362 996
1363 996
1364 996
1357 997
1361 997
1362 997
1358 998
1361 998
1363 998
1359 999
1361 999
1362 999
1360 1000
1361 1000
1363 1000
1361 1001
1365 1001
1366 1002
1376 1002
1377 1002
1378 1002
1379 1002
1367 1003
1376 1003
1377 1003
1378 1003
1379 1003
1368 1004
1376 1004
1377 1004
1378 1004
1379 1004
1369 1005
1376 1005
1377 1005
1378 1005
1379 1005
1370 1006
1376 1006
1377 1006
1378 1006
1379 1006
1371 1007
1376 1007
1377 1007
1378 1007
1379 1007
1372 1008
1376 1008
1377 1008
1373 1009
1376 1009
1378 1009
1374 1010
1376 1010
1377 1010
1375 1011
1376 1011
1378 1011
1376 1012
1380 1012
1285 1013
1287 1013
1288 1013
1286 1014
1289 1014
1290 1014
1283 1015
1381 1015
1399 1015
1414 1015
1429 1015
1444 1015
1459 1015
1474 1015
1284 1016
1382 1016
1399 1016
1414 1016
1429 1016
1444 1016
1459 1016
1474 1016
1285 1017
1381 1017
1382 1017
1383 1017
1384 1017
1286 1018
1381 1018
1382 1018
1384 1018
1400 1018
1401 1018
1415 1018
1416 1018
1430 1018
1431 1018
1445 1018
1446 1018
1460 1018
1461 1018
1475 1018
1476 1018
1389 1019
1399 1019
1400 1019
1401 1019
1402 1019
1390 1020
1399 1020
1400 1020
1401 1020
1402 1020
1391 1021
1399 1021
1400 1021
1401 1021
1402 1021
1392 1022
1399 1022
1400 1022
1401 1022
1402 1022
1393 1023
1399 1023
1400 1023
1401 1023
1402 1023
1394 1024
1399 1024
1400 1024
1401 1024
1402 1024
1395 1025
1399 1025
1400 1025
1396 1026
1399 1026
1401 1026
1397 1027
1399 1027
1400 1027
1398 1028
1399 1028
1401 1028
1399 1029
1403 1029
1404 1030
1414 1030
1415 1030
1416 1030
1417 1030
1405 1031
1414 1031
1415 1031
1416 1031
1417 1031
1406 1032
1414 1032
1415 1032
1416 1032
1417 1032
1407 1033
1414 1033
1415 1033
1416 1033
1417 1033
1408 1034
1414 1034
1415 1034
1416 1034
1417 1034
1409 1035
1414 1035
1415 1035
1416 1035
1417 1035
1410 1036
1414 1036
1415 1036
1411 1037
1414 1037
1416 1037
1412 1038
1414 1038
1415 1038
1413 1039
1414 1039
1416 1039
1414 1040
1418 1040
1419 1041
1429 1041
1430 1041
1431 1041
1432 1041
1420 1042
1429 1042
1430 1042
1431 1042
1432 1042
1421 1043
1429 1043
1430 1043
1431 1043
1432 1043
1422 1044
1429 1044
1430 1044
1431 1044
1432 1044
1423 1045
1429 1045
1430 1045
1431 1045
1432 1045
1424 1046
1429 1046
1430 1046
1431 1046
1432 1046
1425 1047
1429 1047
1430 1047
1426 1048
1429 1048
1431 1048
1427 1049
1429 1049
1430 1049
1428 1050
1429 1050
1431 1050
1429 1051
1433 1051
1434 1052
1444 1052
1445 1052
1446 1052
1447 1052
1435 1053
1444 1053
1445 1053
1446 1053
1447 1053
1436 1054
1444 1054
1445 1054
1446 1054
1447 1054
1437 1055
1444 1055
1445 1055
1446 1055
1447 1055
1438 1056
1444 1056
1445 1056
1446 1056
1447 1056
1439 1057
1444 1057
1445 1057
1446 1057
1447 1057
1440 1058
1444 1058
1445 1058
1441 1059
1444 1059
1446 1059
1442 1060
1444 1060
1445 1060
1443 1061
1444 1061
1446 1061
1444 1062
1448 1062
1449 1063
1459 1063
1460 1063
1461 1063
1462 1063
1450 1064
1459 1064
1460 1064
1461 1064
1462 1064
1451 1065
1459 1065
1460 1065
1461 1065
1462 1065
1452 1066
1459 1066
1460 1066
1461 1066
1462 1066
1453 1067
1459 1067
1460 1067
1461 1067
1462 1067
1454 1068
1459 1068
1460 1068
1461 1068
1462 1068
1455 1069
1459 1069
1460 1069
1456 1070
1459 1070
1461 1070
1457 1071
1459 1071
1460 1071
1458 1072
1459 1072
1461 1072
1459 1073
1463 1073
1464 1074
1474 1074
1475 1074
1476 1074
1477 1074
1465 1075
1474 1075
1475 1075
1476 1075
1477 1075
1466 1076
1474 1076
1475 1076
1476 1076
1477 1076
1467 1077
1474 1077
1475 1077
1476 1077
1477 1077
1468 1078
1474 1078
1475 1078
1476 1078
1477 1078
1469 1079
1474 1079
1475 1079
1476 1079
1477 1079
1470 1080
1474 1080
1475 1080
1471 1081
1474 1081
1476 1081
1472 1082
1474 1082
1475 1082
1473 1083
1474 1083
1476 1083
1474 1084
1478 1084
1383 1085
1385 1085
1386 1085
1384 1086
1387 1086
1388 1086
1381 1087
1479 1087
1497 1087
1512 1087
1527 1087
1542 1087
1557 1087
1572 1087
1382 1088
1480 1088
1497 1088
1512 1088
1527 1088
1542 1088
1557 1088
1572 1088
1383 1089
1479 1089
1480 1089
1481 1089
1482 1089
1384 1090
1479 1090
1480 1090
1482 1090
1498 1090
1499 1090
1513 1090
1514 1090
1528 1090
1529 1090
1543 1090
1544 1090
1558 1090
1559 1090
1573 1090
1574 1090
1487 1091
1497 1091
1498 1091
1499 1091
1500 1091
1488 1092
1497 1092
1498 1092
1499 1092
1500 1092
1489 1093
1497 1093
1498 1093
1499 1093
1500 1093
1490 1094
1497 1094
1498 1094
1499 1094
1500 1094
1491 1095
1497 1095
1498 1095
1499 1095
1500 1095
1492 1096
1497 1096
1498 1096
1499 1096
1500 1096
1493 1097
1497 1097
1498 1097
1494 1098
1497 1098
1499 1098
1495 1099
1497 1099
1498 1099
1496 1100
1497 1100
1499 1100
1497 1101
1501 1101
1502 1102
1512 1102
1513 1102
1514 1102
1515 1102
1503 1103
1512 1103
1513 1103
1514 1103
1515 1103
1504 1104
1512 1104
1513 1104
1514 1104
1515 1104
1505 1105
1512 1105
1513 1105
1514 1105
1515 1105
1506 1106
1512 1106
1513 1106
1514 1106
1515 1106
1507 1107
1512 1107
1513 1107
1514 1107
1515 1107
1508 1108
1512 1108
1513 1108
1509 1109
1512 1109
1514 1109
1510 1110
1512 1110
1513 1110
1511 1111
1512 1111
1514 1111
1512 1112
1516 1112
1517 1113
1527 1113
1528 1113
1529 1113
1530 1113
1518 1114
1527 1114
1528 1114
1529 1114
1530 1114
1519 1115
1527 1115
1528 1115
1529 1115
1530 1115
1520 1116
1527 1116
1528 1116
1529 1116
1530 1116
1521 1117
1527 1117
1528 1117
1529 1117
1530 1117
1522 1118
1527 1118
1528 1118
1529 1118
1530 1118
1523 1119
1527 1119
1528 1119
1524 1120
1527 1120
1529 1120
1525 1121
1527 1121
1528 1121
1526 1122
1527 1122
1529 1122
1527 1123
1531 1123
1532 1124
1542 1124
1543 1124
1544 1124
1545 1124
1533 1125
1542 1125
1543 1125
1544 1125
1545 1125
1534 1126
1542 1126
1543 1126
1544 1126
1545 1126
1535 1127
1542 1127
1543 1127
1544 1127
1545 1127
1536 1128
1542 1128
1543 1128
1544 1128
1545 1128
1537 1129
1542 1129
1543 1129
1544 1129
1545 1129
1538 1130
1542 1130
1543 1130
1539 1131
1542 1131
1544 1131
1540 1132
1542 1132
1543 1132
1541 1133
1542 1133
1544 1133
1542 1134
1546 1134
1547 1135
1557 1135
1558 1135
1559 1135
1560 1135
1548 1136
1557 1136
1558 1136
1559 1136
1560 1136
1549 1137
1557 1137
1558 1137
1559 1137
1560 1137
1550 1138
1557 1138
1558 1138
1559 1138
1560 1138
1551 1139
1557 1139
1558 1139
1559 1139
1560 1139
1552 1140
1557 1140
1558 1140
1559 1140
1560 1140
1553 1141
1557 1141
1558 1141
1554 1142
1557 1142
1559 1142
1555 1143
1557 1143
1558 1143
1556 1144
1557 1144
1559 1144
1557 1145
1561 1145
1562 1146
1572 1146
1573 1146
1574 1146
1575 1146
1563 1147
1572 1147
1573 1147
1574 1147
1575 1147
1564 1148
1572 1148
1573 1148
1574 1148
1575 1148
1565 1149
1572 1149
1573 1149
1574 1149
1575 1149
1566 1150
1572 1150
1573 1150
1574 1150
1575 1150
1567 1151
1572 1151
1573 1151
1574 1151
1575 1151
1568 1152
1572 1152
1573 1152
1569 1153
1572 1153
1574 1153
1570 1154
1572 1154
1573 1154
1571 1155
1572 1155
1574 1155
1572 1156
1576 1156
1481 1157
1483 1157
1484 1157
1482 1158
1485 1158
1486 1158
1479 1159
1577 1159
1595 1159
1610 1159
1625 1159
1640 1159
1655 1159
1670 1159
1480 1160
1578 1160
1595 1160
1610 1160
1625 1160
1640 1160
1655 1160
1670 1160
1481 1161
1577 1161
1578 1161
1579 1161
1580 1161
1482 1162
1577 1162
1578 1162
1580 1162
1596 1162
1597 1162
1611 1162
1612 1162
1626 1162
1627 1162
1641 1162
1642 1162
1656 1162
1657 1162
1671 1162
1672 1162
1585 1163
1595 1163
1596 1163
1597 1163
1598 1163
1586 1164
1595 1164
1596 1164
1597 1164
1598 1164
1587 1165
1595 1165
1596 1165
1597 1165
1598 1165
1588 1166
1595 1166
1596 1166
1597 1166
1598 1166
1589 1167
1595 1167
1596 1167
1597 1167
1598 1167
1590 1168
1595 1168
1596 1168
1597 1168
1598 1168
1591 1169
1595 1169
1596 1169
1592 1170
1595 1170
1597 1170
1593 1171
1595 1171
1596 1171
1594 1172
1595 1172
1597 1172
1595 1173
1599 1173
1600 1174
1610 1174
1611 1174
1612 1174
1613 1174
1601 1175
1610 1175
1611 1175
1612 1175
1613 1175
1602 1176
1610 1176
1611 1176
1612 1176
1613 1176
1603 1177
1610 1177
1611 1177
1612 1177
1613 1177
1604 1178
1610 1178
1611 1178
1612 1178
1613 1178
1605 1179
1610 1179
1611 1179
1612 1179
1613 1179
1606 1180
1610 1180
1611 1180
1607 1181
1610 1181
1612 1181
1608 1182
1610 1182
1611 1182
1609 1183
1610 1183
1612 1183
1610 1184
1614 1184
1615 1185
1625 1185
1626 1185
1627 1185
1628 1185
1616 1186
1625 1186
1626 1186
1627 1186
1628 1186
1617 1187
1625 1187
1626 1187
1627 1187
1628 1187
1618 1188
1625 1188
1626 1188
1627 1188
1628 1188
1619 1189
1625 1189
1626 1189
1627 1189
1628 1189
1620 1190
1625 1190
1626 1190
1627 1190
1628 1190
1621 1191
1625 1191
1626 1191
1622 1192
1625 1192
1627 1192
1623 1193
1625 1193
1626 1193
1624 1194
1625 1194
1627 1194
1625 1195
1629 1195
1630 1196
1640 1196
1641 1196
1642 1196
1643 1196
1631 1197
1640 1197
1641 1197
1642 1197
1643 1197
1632 1198
1640 1198
1641 1198
1642 1198
1643 1198
1633 1199
1640 1199
1641 1199
1642 1199
1643 1199
1634 1200
1640 1200
1641 1200
1642 1200
1643 1200
1635 1201
1640 1201
1641 1201
1642 1201
1643 1201
1636 1202
1640 1202
1641 1202
1637 1203
1640 1203
1642 1203
1638 1204
1640 1204
1641 1204
1639 1205
1640 1205
1642 1205
1640 1206
1644 1206
1645 1207
1655 1207
1656 1207
1657 1207
1658 1207
1646 1208
1655 1208
1656 1208
1657 1208
1658 1208
1647 1209
1655 1209
1656 1209
1657 1209
1658 1209
1648 1210
1655 1210
1656 1210
1657 1210
1658 1210
1649 1211
1655 1211
1656 1211
1657 1211
1658 1211
1650 1212
1655 1212
1656 1212
1657 1212
1658 1212
1651 1213
1655 1213
1656 1213
1652 1214
1655 1214
1657 1214
1653 1215
1655 1215
1656 1215
1654 1216
1655 1216
1657 1216
1655 1217
1659 1217
1660 1218
1670 1218
1671 1218
1672 1218
1673 1218
1661 1219
1670 1219
1671 1219
1672 1219
1673 1219
1662 1220
1670 1220
1671 1220
1672 1220
1673 1220
1663 1221
1670 1221
1671 1221
1672 1221
1673 1221
1664 1222
1670 1222
1671 1222
1672 1222
1673 1222
1665 1223
1670 1223
1671 1223
1672 1223
1673 1223
1666 1224
1670 1224
1671 1224
1667 1225
1670 1225
1672 1225
1668 1226
1670 1226
1671 1226
1669 1227
1670 1227
1672 1227
1670 1228
1674 1228
1579 1229
1581 1229
1582 1229
1580 1230
1583 1230
1584 1230
1577 1231
1675 1231
1693 1231
1708 1231
1723 1231
1738 1231
1753 1231
1768 1231
1578 1232
1676 1232
1693 1232
1708 1232
1723 1232
1738 1232
1753 1232
1768 1232
1579 1233
1675 1233
1676 1233
1677 1233
1678 1233
1580 1234
1675 1234
1676 1234
1678 1234
1694 1234
1695 1234
1709 1234
1710 1234
1724 1234
1725 1234
1739 1234
1740 1234
1754 1234
1755 1234
1769 1234
1770 1234
1683 1235
1693 1235
1694 1235
1695 1235
1696 1235
1684 1236
1693 1236
1694 1236
1695 1236
1696 1236
1685 1237
1693 1237
1694 1237
1695 1237
1696 1237
1686 1238
1693 1238
1694 1238
1695 1238
1696 1238
1687 1239
1693 1239
1694 1239
1695 1239
1696 1239
1688 1240
1693 1240
1694 1240
1695 1240
1696 1240
1689 1241
1693 1241
1694 1241
1690 1242
1693 1242
1695 1242
1691 1243
1693 1243
1694 1243
1692 1244
1693 1244
1695 1244
1693 1245
1697 1245
1698 1246
1708 1246
1709 1246
1710 1246
1711 1246
1699 1247
1708 1247
1709 1247
1710 1247
1711 1247
1700 1248
1708 1248
1709 1248
1710 1248
1711 1248
1701 1249
1708 1249
1709 1249
1710 1249
1711 1249
1702 1250
1708 1250
1709 1250
1710 1250
1711 1250
1703 1251
1708 1251
1709 1251
1710 1251
1711 1251
1704 1252
1708 1252
1709 1252
1705 1253
1708 1253
1710 1253
1706 1254
1708 1254
1709 1254
1707 1255
1708 1255
1710 1255
1708 1256
1712 1256
1713 1257
1723 1257
1724 1257
1725 1257
1726 1257
1714 1258
1723 1258
1724 1258
1725 1258
1726 1258
1715 1259
1723 1259
1724 1259
1725 1259
1726 1259
1716 1260
1723 1260
1724 1260
1725 1260
1726 1260
1717 1261
1723 1261
1724 1261
1725 1261
1726 1261
1718 1262
1723 1262
1724 1262
1725 1262
1726 1262
1719 1263
1723 1263
1724 1263
1720 1264
1723 1264
1725 1264
1721 1265
1723 1265
1724 1265
1722 1266
1723 1266
1725 1266
1723 1267
1727 1267
1728 1268
1738 1268
1739 1268
1740 1268
1741 1268
1729 1269
1738 1269
1739 1269
1740 1269
1741 1269
1730 1270
1738 1270
1739 1270
1740 1270
1741 1270
1731 1271
1738 1271
1739 1271
1740 1271
1741 1271
1732 1272
1738 1272
1739 1272
1740 1272
1741 1272
1733 1273
1738 1273
1739 1273
1740 1273
1741 1273
1734 1274
1738 1274
1739 1274
1735 1275
1738 1275
1740 1275
1736 1276
1738 1276
1739 1276
1737 1277
1738 1277
1740 1277
1738 1278
1742 1278
1743 1279
1753 1279
1754 1279
1755 1279
1756 1279
1744 1280
1753 1280
1754 1280
1755 1280
1756 1280
1745 1281
1753 1281
1754 1281
1755 1281
1756 1281
1746 1282
1753 1282
1754 1282
1755 1282
1756 1282
1747 1283
1753 1283
1754 1283
1755 1283
1756 1283
1748 1284
1753 1284
1754 1284
1755 1284
1756 1284
1749 1285
1753 1285
1754 1285
1750 1286
1753 1286
1755 1286
1751 1287
1753 1287
1754 1287
1752 1288
1753 1288
1755 1288
1753 1289
1757 1289
1758 1290
1768 1290
1769 1290
1770 1290
1771 1290
1759 1291
1768 1291
1769 1291
1770 1291
1771 1291
1760 1292
1768 1292
1769 1292
1770 1292
1771 1292
1761 1293
1768 1293
1769 1293
1770 1293
1771 1293
1762 1294
1768 1294
1769 1294
1770 1294
1771 1294
1763 1295
1768 1295
1769 1295
1770 1295
1771 1295
1764 1296
1768 1296
1769 1296
1765 1297
1768 1297
1770 1297
1766 1298
1768 1298
1769 1298
1767 1299
1768 1299
1770 1299
1768 1300
1772 1300
1677 1301
1679 1301
1680 1301
1678 1302
1681 1302
1682 1302
1675 1303
1773 1303
1791 1303
1806 1303
1821 1303
1836 1303
1851 1303
1866 1303
1676 1304
1774 1304
1791 1304
1806 1304
1821 1304
1836 1304
1851 1304
1866 1304
1677 1305
1773 1305
1774 1305
1775 1305
1776 1305
1678 1306
1773 1306
1774 1306
1776 1306
1792 1306
1793 1306
1807 1306
1808 1306
1822 1306
1823 1306
1837 1306
1838 1306
1852 1306
1853 1306
1867 1306
1868 1306
1781 1307
1791 1307
1792 1307
1793 1307
1794 1307
1782 1308
1791 1308
1792 1308
1793 1308
1794 1308
1783 1309
1791 1309
1792 1309
1793 1309
1794 1309
1784 1310
1791 1310
1792 1310
1793 1310
1794 1310
1785 1311
1791 1311
1792 1311
1793 1311
1794 1311
1786 1312
1791 1312
1792 1312
1793 1312
1794 1312
1787 1313
1791 1313
1792 1313
1788 1314
1791 1314
1793 1314
1789 1315
1791 1315
1792 1315
1790 1316
1791 1316
1793 1316
1791 1317
1795 1317
1796 1318
1806 1318
1807 1318
1808 1318
1809 1318
1797 1319
1806 1319
1807 1319
1808 1319
1809 1319
1798 1320
1806 1320
1807 1320
1808 1320
1809 1320
1799 1321
1806 1321
1807 1321
1808 1321
1809 1321
1800 1322
1806 1322
1807 1322
1808 1322
1809 1322
1801 1323
1806 1323
1807 1323
1808 1323
1809 1323
1802 1324
1806 1324
1807 1324
1803 1325
1806 1325
1808 1325
1804 1326
1806 1326
1807 1326
1805 1327
1806 1327
1808 1327
1806 1328
1810 1328
1811 1329
1821 1329
1822 1329
1823 1329
1824 1329
1812 1330
1821 1330
1822 1330
1823 1330
1824 1330
1813 1331
1821 1331
1822 1331
1823 1331
1824 1331
1814 1332
1821 1332
1822 1332
1823 1332
1824 1332
1815 1333
1821 1333
1822 1333
1823 1333
1824 1333
1816 1334
1821 1334
1822 1334
1823 1334
1824 1334
1817 1335
1821 1335
1822 1335
1818 1336
1821 1336
1823 1336
1819 1337
1821 1337
1822 1337
1820 1338
1821 1338
1823 1338
1821 1339
1825 1339
1826 1340
1836 1340
1837 1340
1838 1340
1839 1340
1827 1341
1836 1341
1837 1341
1838 1341
1839 1341
1828 1342
1836 1342
1837 1342
1838 1342
1839 1342
1829 1343
1836 1343
1837 1343
1838 1343
1839 1343
1830 1344
1836 1344
1837 1344
1838 1344
1839 1344
1831 1345
1836 1345
1837 1345
1838 1345
1839 1345
1832 1346
1836 1346
1837 1346
1833 1347
1836 1347
1838 1347
1834 1348
1836 1348
1837 1348
1835 1349
1836 1349
1838 1349
1836 1350
1840 1350
1841 1351
1851 1351
1852 1351
1853 1351
1854 1351
1842 1352
1851 1352
1852 1352
1853 1352
1854 1352
1843 1353
1851 1353
1852 1353
1853 1353
1854 1353
1844 1354
1851 1354
1852 1354
1853 1354
1854 1354
1845 1355
1851 1355
1852 1355
1853 1355
1854 1355
1846 1356
1851 1356
1852 1356
1853 1356
1854 1356
1847 1357
1851 1357
1852 1357
1848 1358
1851 1358
1853 1358
1849 1359
1851 1359
1852 1359
1850 1360
1851 1360
1853 1360
1851 1361
1855 1361
1856 1362
1866 1362
1867 1362
1868 1362
1869 1362
1857 1363
1866 1363
1867 1363
1868 1363
1869 1363
1858 1364
1866 1364
1867 1364
1868 1364
1869 1364
1859 1365
1866 1365
1867 1365
1868 1365
1869 1365
1860 1366
1866 1366
1867 1366
1868 1366
1869 1366
1861 1367
1866 1367
1867 1367
1868 1367
1869 1367
1862 1368
1866 1368
1867 1368
1863 1369
1866 1369
1868 1369
1864 1370
1866 1370
1867 1370
1865 1371
1866 1371
1868 1371
1866 1372
1870 1372
1775 1373
1777 1373
1778 1373
1776 1374
1779 1374
1780 1374
1773 1375
1871 1375
1774 1376
1872 1376
1775 1377
1871 1377
1872 1377
1873 1377
1874 1377
1776 1378
1871 1378
1872 1378
1874 1378
1873 1379
1875 1379
1876 1379
1874 1380
1877 1380
1878 1380
1871 1381
1879 1381
1872 1382
1880 1382
1873 1383
1879 1383
1880 1383
1881 1383
1882 1383
1874 1384
1879 1384
1880 1384
1882 1384
1881 1385
1883 1385
1884 1385
1882 1386
1885 1386
1886 1386
1879 1387
1887 1387
1880 1388
1888 1388
1881 1389
1887 1389
1888 1389
1889 1389
1890 1389
1882 1390
1887 1390
1888 1390
1890 1390
1889 1391
1891 1391
1892 1391
1890 1392
1893 1392
1894 1392
1887 1393
1895 1393
1888 1394
1896 1394
1889 1395
1895 1395
1896 1395
1897 1395
1898 1395
1890 1396
1895 1396
1896 1396
1898 1396
1897 1397
1899 1397
1900 1397
1898 1398
1901 1398
1902 1398
1895 1399
1903 1399
1896 1400
1904 1400
1897 1401
1903 1401
1904 1401
1905 1401
1906 1401
1898 1402
1903 1402
1904 1402
1906 1402
1905 1403
1907 1403
1908 1403
1906 1404
1909 1404
1910 1404
1903 1405
1911 1405
1904 1406
1912 1406
1905 1407
1911 1407
1912 1407
1913 1407
1914 1407
1906 1408
1911 1408
1912 1408
1914 1408
1913 1409
1915 1409
1916 1409
1914 1410
1917 1410
1918 1410
1911 1411
1919 1411
1912 1412
1920 1412
1913 1413
1919 1413
1920 1413
1921 1413
1922 1413
1914 1414
1919 1414
1920 1414
1922 1414
1921 1415
1923 1415
1924 1415
1922 1416
1925 1416
1926 1416
1919 1417
1927 1417
1920 1418
1928 1418
1921 1419
1927 1419
1928 1419
1929 1419
1930 1419
1922 1420
1927 1420
1928 1420
1930 1420
1929 1421
1931 1421
1932 1421
1930 1422
1933 1422
1934 1422
1927 1423
1935 1423
1928 1424
1936 1424
1929 1425
1935 1425
1936 1425
1937 1425
1938 1425
1930 1426
1935 1426
1936 1426
1938 1426
1937 1427
1939 1427
1940 1427
1938 1428
1941 1428
1942 1428
1935 1429
1943 1429
1936 1430
1944 1430
1937 1431
1943 1431
1944 1431
1945 1431
1946 1431
1938 1432
1943 1432
1944 1432
1946 1432
1945 1433
1947 1433
1948 1433
1946 1434
1949 1434
1950 1434
1943 1435
1944 1436
1945 1437
1946 1438
