%%MatrixMarket matrix coordinate pattern general
772 184 480
1 1
2 1
3 1
4 1
1 2
2 2
3 2
4 2
1 3
2 3
3 3
4 3
1 4
2 4
3 4
4 4
9 7
10 7
11 7
12 7
9 8
10 8
11 8
12 8
9 9
10 9
11 9
12 9
9 10
10 10
11 10
12 10
45 13
46 13
47 13
48 13
45 14
46 14
47 14
48 14
45 15
46 15
47 15
48 15
45 16
46 16
47 16
48 16
81 19
82 19
83 19
84 19
81 20
82 20
83 20
84 20
81 21
82 21
83 21
84 21
81 22
82 22
83 22
84 22
117 25
118 25
119 25
120 25
117 26
118 26
119 26
120 26
117 27
118 27
119 27
120 27
117 28
118 28
119 28
120 28
153 31
154 31
155 31
156 31
153 32
154 32
155 32
156 32
153 33
154 33
155 33
156 33
153 34
154 34
155 34
156 34
189 37
190 37
191 37
192 37
189 38
190 38
191 38
192 38
189 39
190 39
191 39
192 39
189 40
190 40
191 40
192 40
225 43
226 43
227 43
228 43
225 44
226 44
227 44
228 44
225 45
226 45
227 45
228 45
225 46
226 46
227 46
228 46
261 49
262 49
263 49
264 49
261 50
262 50
263 50
264 50
261 51
262 51
263 51
264 51
261 52
262 52
263 52
264 52
297 55
298 55
299 55
300 55
297 56
298 56
299 56
300 56
297 57
298 57
299 57
300 57
297 58
298 58
299 58
300 58
333 61
334 61
335 61
336 61
333 62
334 62
335 62
336 62
333 63
334 63
335 63
336 63
333 64
334 64
335 64
336 64
369 67
370 67
371 67
372 67
369 68
370 68
371 68
372 68
369 69
370 69
371 69
372 69
369 70
370 70
371 70
372 70
405 73
406 73
407 73
408 73
405 74
406 74
407 74
408 74
405 75
406 75
407 75
408 75
405 76
406 76
407 76
408 76
441 79
442 79
443 79
444 79
441 80
442 80
443 80
444 80
441 81
442 81
443 81
444 81
441 82
442 82
443 82
444 82
477 85
478 85
479 85
480 85
477 86
478 86
479 86
480 86
477 87
478 87
479 87
480 87
477 88
478 88
479 88
480 88
513 91
514 91
515 91
516 91
513 92
514 92
515 92
516 92
513 93
514 93
515 93
516 93
513 94
514 94
515 94
516 94
549 97
550 97
551 97
552 97
549 98
550 98
551 98
552 98
549 99
550 99
551 99
552 99
549 100
550 100
551 100
552 100
585 103
586 103
587 103
588 103
585 104
586 104
587 104
588 104
585 105
586 105
587 105
588 105
585 106
586 106
587 106
588 106
621 109
622 109
623 109
624 109
621 110
622 110
623 110
624 110
621 111
622 111
623 111
624 111
621 112
622 112
623 112
624 112
657 115
658 115
659 115
660 115
657 116
658 116
659 116
660 116
657 117
658 117
659 117
660 117
657 118
658 118
659 118
660 118
693 121
694 121
695 121
696 121
693 122
694 122
695 122
696 122
693 123
694 123
695 123
696 123
693 124
694 124
695 124
696 124
701 127
702 127
703 127
704 127
701 128
702 128
703 128
704 128
701 129
702 129
703 129
704 129
701 130
702 130
703 130
704 130
709 133
710 133
711 133
712 133
709 134
710 134
711 134
712 134
709 135
710 135
711 135
712 135
709 136
710 136
711 136
712 136
717 139
718 139
719 139
720 139
717 140
718 140
719 140
720 140
717 141
718 141
719 141
720 141
717 142
718 142
719 142
720 142
725 145
726 145
727 145
728 145
725 146
726 146
727 146
728 146
725 147
726 147
727 147
728 147
725 148
726 148
727 148
728 148
733 151
734 151
735 151
736 151
733 152
734 152
735 152
736 152
733 153
734 153
735 153
736 153
733 154
734 154
735 154
736 154
741 157
742 157
743 157
744 157
741 158
742 158
743 158
744 158
741 159
742 159
743 159
744 159
741 160
742 160
743 160
744 160
749 163
750 163
751 163
752 163
749 164
750 164
751 164
752 164
749 165
750 165
751 165
752 165
749 166
750 166
751 166
752 166
757 169
758 169
759 169
760 169
757 170
758 170
759 170
760 170
757 171
758 171
759 171
760 171
757 172
758 172
759 172
760 172
765 175
766 175
767 175
768 175
765 176
766 176
767 176
768 176
765 177
766 177
767 177
768 177
765 178
766 178
767 178
768 178
